@RELATION glcm_lbp_hog_features

@ATTRIBUTE glcm_contrast NUMERIC
@ATTRIBUTE glcm_dissimilarity NUMERIC
@ATTRIBUTE glcm_homogeneity NUMERIC
@ATTRIBUTE glcm_energy NUMERIC
@ATTRIBUTE glcm_correlation NUMERIC
@ATTRIBUTE glcm_ASM NUMERIC
@ATTRIBUTE lbp_bin_0 NUMERIC
@ATTRIBUTE lbp_bin_1 NUMERIC
@ATTRIBUTE lbp_bin_2 NUMERIC
@ATTRIBUTE lbp_bin_3 NUMERIC
@ATTRIBUTE lbp_bin_4 NUMERIC
@ATTRIBUTE lbp_bin_5 NUMERIC
@ATTRIBUTE lbp_bin_6 NUMERIC
@ATTRIBUTE lbp_bin_7 NUMERIC
@ATTRIBUTE lbp_bin_8 NUMERIC
@ATTRIBUTE lbp_bin_9 NUMERIC
@ATTRIBUTE hog_mean NUMERIC
@ATTRIBUTE hog_std NUMERIC
@ATTRIBUTE hog_skew NUMERIC
@ATTRIBUTE class {KuruYaprak,Oak,TazeYaprak,yaprak}

@DATA
472.4121122813027,15.217823025491253,0.0845810141090442,0.011494107708874934,0.8875472905607642,0.000132687319995675,0.04077148437475115,0.0626831054683674,0.06774902343708648,0.15216064453032127,0.2587280273421708,0.14758300781159922,0.07592773437453657,0.06030273437463194,0.05126953124968708,0.08282470703074447,0.15614912882498636,0.05826857936452276,-2.1234786412737018e-05,KuruYaprak
351.406617157009,12.788893937163733,0.09946924473979979,0.012504127139857085,0.9102158653461344,0.00015676338205853794,0.051086425780938194,0.060668945312129706,0.07061767578081898,0.1482543945303451,0.2294921874985993,0.14367675781162306,0.07153320312456339,0.06286621093711629,0.06158447265587411,0.10021972656188831,0.15238501119094414,0.06750248986525854,7.2950882387455115e-06,KuruYaprak
384.90204694864997,12.950922179188833,0.11047150011183603,0.012436394375227148,0.9171348529314273,0.00015504315312278642,0.05523681640591286,0.06970214843707456,0.062316894530869645,0.12152099609300829,0.238220214842296,0.14404296874912081,0.07025146484332122,0.06781005859333612,0.06329345703086368,0.10760498046809322,0.14941548089878112,0.07384302161373886,5.6352554613110434e-05,KuruYaprak
445.02392732524356,14.24611784770571,0.08879106065447487,0.012418845703371975,0.8789414450425854,0.00015456537141531821,0.06530761718710139,0.07348632812455147,0.06591796874959767,0.1250610351554867,0.20989990234246886,0.12457275390548966,0.07080078124956786,0.0764160156245336,0.07098388671831675,0.1175537109367825,0.15362055942580427,0.0646413296219163,2.360032000019265e-05,KuruYaprak
451.0159896140648,14.197529609904624,0.09499549480765956,0.013309410769898604,0.8761326925687529,0.00017765436522035468,0.05792236328089647,0.06317138671836443,0.06854248046833164,0.1399536132803958,0.22625732421736902,0.13238525390544198,0.07238769531205817,0.06750488281208798,0.06457519531210586,0.1072998046868451,0.15400339018595666,0.06372388551487897,-2.169722854440042e-05,KuruYaprak
364.10362279321976,12.468272405296007,0.11329967147108608,0.013561398745898998,0.9089836197906064,0.0001845450668495328,0.04327392578098588,0.05749511718714907,0.05664062499965429,0.14294433593662753,0.28295898437327294,0.15832519531153366,0.0697631835933242,0.05371093749967217,0.05255126953092925,0.08233642578074746,0.151200929067399,0.0701145977865275,-1.6140323593717056e-05,KuruYaprak
389.26981146153844,12.080565528319799,0.13481357751636583,0.014520037932876602,0.9027463276796823,0.00021157086548576913,0.04919433593719974,0.060668945312129706,0.05908203124963939,0.12945556640545985,0.25341796874845324,0.16015624999902248,0.07336425781205222,0.060791015624628957,0.05780029296839721,0.09606933593691364,0.14654569709010218,0.07938599648238223,7.531883867177765e-05,KuruYaprak
411.7327958132784,13.619657454159553,0.1110794555620633,0.01236471538714437,0.9131208824630912,0.00015372764787068867,0.03790283203101866,0.05810546874964535,0.06085205078087859,0.1417846679678846,0.297363281248185,0.14385986328037195,0.06805419921833462,0.05682373046840317,0.05596923828090839,0.07928466796826608,0.14883047822411943,0.07501510864217868,7.786335784621685e-05,KuruYaprak
303.2074825673295,11.474059366088198,0.11965561241029302,0.013947995319858644,0.9046869460123081,0.00019517952362701352,0.04302978515598736,0.05841064453089349,0.06542968749960065,0.14874267578034214,0.2502441406234726,0.15802001953028552,0.07513427734329141,0.05889892578089051,0.05383300781217143,0.08825683593696132,0.15219238099763782,0.06793568237703562,-2.567774409256927e-05,KuruYaprak
397.9824370117956,12.729298739848868,0.11492268372545078,0.014365560559200772,0.8997258055952848,0.00020707555066496478,0.05255126953092925,0.05987548828088455,0.0593261718746379,0.14099121093663944,0.24511718749850392,0.1459960937491089,0.07037353515582047,0.06152343749962449,0.06219482421837039,0.10205078124937712,0.15204737704693827,0.06825959937425372,2.5744281710347733e-05,KuruYaprak
559.5620988156647,15.575591592591138,0.08856483606195163,0.012777404820563288,0.8248062855952483,0.0001637069911021327,0.054870605468415094,0.06701660156209097,0.0690917968745783,0.13702392578041367,0.22167968749864697,0.1382446289054062,0.07281494140580556,0.06768798828083686,0.06219482421837039,0.10937499999933242,0.15578733845478457,0.05922907184172991,-4.165229446925733e-05,KuruYaprak
483.16272198955755,14.943615973170942,0.09125049673566828,0.012653778047267472,0.8466324085583161,0.00016053646501003235,0.05902099609338976,0.07061767578081898,0.06585693359334804,0.13598632812417,0.21545410156118497,0.12847900390546582,0.07476806640579364,0.07275390624955594,0.0655517578120999,0.11151123046806938,0.15280904872907933,0.06653700023377214,1.5493770861725193e-05,KuruYaprak
487.2988069335952,14.785446391206598,0.09179775504150643,0.012563077266884253,0.8457260600900587,0.00015818959018481992,0.06372070312461107,0.06713867187459022,0.06103515624962747,0.12902832031171246,0.21899414062366335,0.13458251953042857,0.07012939453082197,0.06732177734333909,0.07073974609331823,0.11730957031178399,0.1520119668377696,0.06833842046456474,3.65577155607393e-05,KuruYaprak
1097.8435419606753,23.636786320451012,0.05256969212279146,0.009916430195325775,0.726933465727216,9.859363394266294e-05,0.06652832031209394,0.08056640624950825,0.07806396484327353,0.12634277343672887,0.17315673828019312,0.12628173828047923,0.07543945312453955,0.08184814453075044,0.06933593749957681,0.1224365234367527,0.1566093043416902,0.05702020315409664,-1.3595904823969637e-05,KuruYaprak
843.1662989850379,19.899530857657723,0.06715757034862281,0.010584504125929244,0.8034543149839407,0.0001122395910880193,0.0655517578120999,0.07989501953076236,0.07281494140580556,0.12579345703048223,0.18389892578012756,0.12164306640550754,0.07122802734331525,0.07812499999952316,0.07403564453079813,0.12701416015547476,0.15576438506950133,0.05928940982996149,-3.1753663206708104e-05,KuruYaprak
658.4628200272922,17.721557200929073,0.07598240240623041,0.011168819811200449,0.8371711152003765,0.0001250932905994479,0.05145263671843595,0.06842041015583239,0.07232666015580855,0.13763427734290995,0.2295532226548489,0.1364135742179174,0.0784301757807713,0.06732177734333909,0.05706787109340168,0.10137939453063123,0.15289448782818255,0.06634043537234574,3.9388131804493416e-05,KuruYaprak
838.3996086001266,19.83288169310996,0.06651312259965157,0.010923345929197349,0.789971351459072,0.00011957460167656739,0.06323242187461406,0.07537841796828992,0.07373046874954998,0.12969970703045838,0.18524169921761938,0.13543701171792336,0.07507324218704178,0.07092285156206712,0.07025146484332122,0.12103271484301127,0.15595505491153702,0.05878604104393658,-4.1563433290897995e-05,KuruYaprak
802.5908976311173,19.381329219692084,0.06863145826273637,0.011193445692913626,0.782126742139407,0.00012565057003605348,0.05816650390589498,0.06988525390582345,0.07031249999957084,0.13586425781167075,0.21014404296746736,0.1384277343741551,0.07720947265577875,0.06903076171832867,0.061340332030875605,0.10961914062433094,0.15461989999239587,0.06221305570572799,-6.524312312962631e-06,KuruYaprak
750.3347757243383,18.052909355820965,0.08229694887645517,0.01175604138084764,0.7924995240789208,0.0001386153120342302,0.05297851562467664,0.07165527343706264,0.06762695312458723,0.13281249999918937,0.23059082031109257,0.13696289062416403,0.0704345703120701,0.06695556640584133,0.06549072265585028,0.10449218749936223,0.152539984386976,0.0671515520054195,3.6588386199575096e-05,KuruYaprak
570.9595118604759,15.944921729688499,0.08744897799904242,0.012450832977607776,0.8116778234604811,0.00015533513367606248,0.06341552734336293,0.07098388671831675,0.07427978515579663,0.13079833984295167,0.19458007812381237,0.12878417968671396,0.06994628906207308,0.07165527343706264,0.07476806640579364,0.12078857421801276,0.15460668361001284,0.06224589269121184,-1.3997383568078038e-07,KuruYaprak
862.8893143998341,20.32626075799276,0.06756996474421251,0.010549095609709182,0.7870133439062051,0.00011155048214827191,0.06713867187459022,0.07794189453077428,0.07397460937454849,0.12414550781174227,0.1806640624988973,0.1253051757804852,0.06988525390582345,0.07739257812452763,0.07568359374953806,0.12786865234296954,0.15503746447154976,0.06116504217321154,-1.503996802337904e-05,KuruYaprak
502.190174603064,14.014717158342107,0.11032720063090307,0.01280385086991856,0.887284993081578,0.00016444356696856496,0.05651855468715503,0.06738281249958873,0.06372070312461107,0.13916015624915062,0.2157592773424331,0.1375732421866603,0.07196044921831078,0.06573486328084878,0.06964111328082494,0.11254882812431305,0.15236313234934146,0.06755185914853189,1.3515214352860818e-06,KuruYaprak
532.7884558191676,15.076822997397837,0.09773362537388953,0.012084983829991677,0.8755749858854791,0.0001464573736837067,0.06604003906209692,0.07879638671826907,0.07086181640581748,0.11077880859307386,0.20745849609248376,0.11517333984304703,0.06793212890583537,0.07891845703076832,0.07794189453077428,0.12609863281173034,0.14788506668557608,0.07686211566510595,9.33141617310659e-05,KuruYaprak
208.39192191666922,8.927051768166356,0.14761286618407016,0.016926219268734388,0.929208065102985,0.00028791499442015354,0.03881835937476307,0.052246093749681116,0.05157470703093521,0.15014648437408357,0.288024902341992,0.16210937499901057,0.07067871093706861,0.052917480468427015,0.05145263671843595,0.08203124999949932,0.1498313088936979,0.07299559335126964,-1.0668946527205953e-06,KuruYaprak
641.1395238923744,17.038842230029204,0.07828498312244103,0.012589465611400029,0.7831788403420019,0.00015890851499615198,0.05157470703093521,0.07281494140580556,0.07537841796828992,0.14874267578034214,0.20190429687376765,0.1381835937491566,0.07464599609329439,0.06994628906207308,0.06127929687462598,0.10552978515560589,0.15660698642811252,0.05702656903479028,-5.316992539007923e-06,KuruYaprak
559.0537677911996,15.697985892067397,0.10067543624431799,0.012715520213301894,0.8423300268786833,0.00016210676790266547,0.06262207031211778,0.07489013671829291,0.06732177734333909,0.12408447265549265,0.1930541992175717,0.1353149414054241,0.07824707031202241,0.07202148437456041,0.07055664062456936,0.12188720703050605,0.15303665581602932,0.06601181523271583,-1.1424076922464684e-06,KuruYaprak
803.1731983152429,19.56606791338811,0.06811216649104554,0.010167290013349616,0.8435086087028862,0.00010362260333650682,0.05407714843716994,0.06964111328082494,0.07385253906204924,0.13537597656167372,0.22027587890490552,0.13635253906166778,0.07293701171830483,0.06951904296832569,0.06280517578086667,0.10516357421810812,0.153765079379737,0.0642967972540878,-5.122811843089091e-06,KuruYaprak
459.33699707246274,14.554970133378667,0.08982942227750812,0.01299874326960708,0.8502579069206528,0.00016943970700118998,0.048522949218453834,0.06463623046835548,0.07104492187456637,0.14538574218661263,0.22991943359234668,0.14703369140535258,0.07769775390577577,0.061767578124622996,0.05645751953090541,0.0975341796869047,0.15527455503513543,0.06056063352197755,-1.6669912463815625e-05,KuruYaprak
492.64906307162613,14.914097859447516,0.0895898913198497,0.013072125945450206,0.8658962115186352,0.00017152101359923266,0.05804443359339572,0.07019042968707159,0.07092285156206712,0.13067626953045242,0.2192993164049115,0.13098144531170056,0.07128906249956489,0.06781005859333612,0.06732177734333909,0.11346435546805746,0.15159901044437202,0.06924967729599665,5.751621517589269e-05,KuruYaprak
611.8282746722278,16.805162915014634,0.07601720141823655,0.011396771228099203,0.8491627987297847,0.00013017064457775725,0.06854248046833164,0.07879638671826907,0.06518554687460214,0.12121582031176015,0.20343017578000835,0.1221923828117542,0.06768798828083686,0.07812499999952316,0.07196044921831078,0.1228637695305001,0.1526385440424099,0.0669272190247995,-9.839733377430746e-06,KuruYaprak
504.9364353416919,15.227372134433725,0.08770224337419971,0.01237413575460237,0.8643436532799128,0.0001535727760656471,0.055297851562162485,0.07324218749955297,0.06494140624960362,0.12463378906173929,0.23144531249858735,0.13702392578041367,0.07574462890578769,0.06701660156209097,0.06365966796836145,0.10699462890559695,0.15352458517052842,0.06486894111986105,-2.626104234724052e-05,KuruYaprak
458.6514103575519,13.752572762959428,0.10016164997616517,0.014206158246144934,0.8386425082060442,0.00020249396422274954,0.04467773437472731,0.06304931640586517,0.0686645507808309,0.15429687499905825,0.23602294921730943,0.14587402343660966,0.08374023437448888,0.06225585937462002,0.05352783203092329,0.08789062499946355,0.15433372668383433,0.0629196200053116,1.8263012473953502e-05,KuruYaprak
370.1559506556781,12.9799981787473,0.09988006524633465,0.01374556528652285,0.8625255033434824,0.00018969475622181744,0.046020507812219114,0.06372070312461107,0.06823730468708351,0.14544677734286227,0.24249267577976993,0.14813232421784586,0.07684326171828099,0.06005859374963343,0.05664062499965429,0.09240722656193599,0.15375002741277272,0.06433278203453079,9.741550521421251e-06,KuruYaprak
593.2157175643194,17.098491071984178,0.07053292053220724,0.012072449941727386,0.7955355445734649,0.00014616535925716869,0.05944824218713715,0.06994628906207308,0.08001708984326161,0.1401977539053943,0.19213867187382727,0.13055419921795317,0.07806396484327353,0.0735473632808011,0.0637817382808607,0.11230468749931455,0.15702741719437324,0.05585846420545324,-1.3126033030857674e-05,KuruYaprak
328.93301140902014,12.38105821133625,0.10195969138483581,0.014495920232737386,0.8790752193895449,0.000210980274455705,0.04394531249973178,0.057678222655897955,0.07208251953081005,0.15838623046778327,0.23632812499855757,0.1528320312490672,0.07739257812452763,0.059631347655886034,0.05328369140592478,0.0884399414057102,0.15692799418800338,0.05613717497547483,-1.9070277884701722e-05,KuruYaprak
647.5333303948651,17.03334056668308,0.08393843765413034,0.011821381628400338,0.8364484111242203,0.00014022620343802667,0.04791259765595756,0.06549072265585028,0.0686645507808309,0.14721679687410144,0.23785400390479824,0.14123535156163797,0.08062744140575788,0.06610107421834654,0.05297851562467664,0.09191894531193896,0.152966161761121,0.0661750038127347,3.216273878320576e-05,KuruYaprak
454.7642227316265,13.857336503737123,0.10362083851155368,0.013891540886772642,0.8667525722775147,0.0001935349463521186,0.05633544921840615,0.06787109374958575,0.06542968749960065,0.1312866210929487,0.23034667968609407,0.13537597656167372,0.07458496093704477,0.06854248046833164,0.06585693359334804,0.10437011718686297,0.15167146159755812,0.06909084968698725,2.054041669793824e-05,KuruYaprak
471.6767285683518,14.847128885665615,0.08466870933454781,0.012672431395452096,0.8499704299924741,0.0001610470760200687,0.04937744140594862,0.061645507812123745,0.06768798828083686,0.14367675781162306,0.2536010742172021,0.13903808593665137,0.07397460937454849,0.06323242187461406,0.05548095703091137,0.09228515624943673,0.15241384151846163,0.06743736862622372,1.6004680929515313e-05,KuruYaprak
405.9628455780735,13.40635135567281,0.09618799793187158,0.013308221500216133,0.8790153861011185,0.00017773719132856,0.041076660155999284,0.05401611328092031,0.06896972656207905,0.16040039062402098,0.2589721679671693,0.15179443359282352,0.07659912109328247,0.05780029296839721,0.048522949218453834,0.08184814453075044,0.15691295114354747,0.0561792091206365,-8.831984685541314e-06,KuruYaprak
435.1416294747115,13.973654912155105,0.0986026263680426,0.013916783097019955,0.8372530225329947,0.00019437554856778795,0.0440063476559814,0.060607910155880074,0.06658935546834356,0.15716552734279074,0.251159667967217,0.13763427734290995,0.07482910156204328,0.06121826171837635,0.056152343749657274,0.09063720703069679,0.15375975154592594,0.06430953722533675,2.1219638514250606e-05,KuruYaprak
384.7921944750538,12.763276987492777,0.11196213689198725,0.013808311966977318,0.893354316886231,0.00019127875984196137,0.05786132812464684,0.06585693359334804,0.06530761718710139,0.13403320312418193,0.2208862304674018,0.1289062499992132,0.074218749999547,0.06933593749957681,0.07049560546831972,0.1130981445305597,0.15214110757604202,0.06805043099921704,-8.017861150771382e-06,KuruYaprak
819.8144520352475,19.304045459655487,0.07505097243292602,0.010767382322427025,0.8075831378495292,0.00011617420506626608,0.06237792968711927,0.07543945312453955,0.07031249999957084,0.12225341796800382,0.20861816406122669,0.13012695312420577,0.07751464843702688,0.07061767578081898,0.06616210937459617,0.11657714843678846,0.15503921887682895,0.06116059502673173,-1.4853835021756716e-05,KuruYaprak
476.76993473522214,15.043060781435214,0.0847439748830009,0.011677564437500475,0.8874878711431025,0.00013660750325537776,0.07403564453079813,0.08074951171825714,0.06744384765583836,0.11572265624929368,0.17761230468641592,0.1130981445305597,0.07269287109330631,0.0797729492182631,0.08111572265575491,0.1377563476554092,0.1516427730697616,0.0691537934550199,4.0734182808612696e-05,KuruYaprak
421.47379259605384,13.192096485756373,0.11005322241732103,0.012932769846778614,0.8839228483036237,0.00016779448126568992,0.06298828124961554,0.0735473632808011,0.06683349609334208,0.12542724609298445,0.20520019531124756,0.1273193359367229,0.07458496093704477,0.07489013671829291,0.07073974609331823,0.11846923828052691,0.15186549732635377,0.06866329802458279,-2.1502465980699724e-05,KuruYaprak
475.7913265944263,14.665950960809806,0.09716188165294339,0.011930088432215562,0.8998311333033857,0.00014275103372200044,0.049804687499696014,0.062316894530869645,0.06774902343708648,0.15545654296780115,0.23504638671731537,0.1331176757804375,0.06805419921833462,0.06610107421834654,0.06329345703086368,0.09906005859314539,0.15317027977324807,0.0657011656511553,9.205316933030534e-07,KuruYaprak
511.2493290182507,15.396151608711207,0.08969001965481509,0.012640350931773094,0.835820904539854,0.00016026478528171812,0.05352783203092329,0.0657958984370984,0.07708740234327949,0.13873291015540323,0.2150878906236872,0.1331176757804375,0.08135986328075341,0.07025146484332122,0.059936523437134175,0.1051025390618585,0.15567135284739528,0.05953324849766427,-1.8355985372425975e-05,KuruYaprak
526.4197273981018,16.196562795470903,0.07960585477066504,0.011619871983021368,0.8505258252913062,0.00013535369056123702,0.06048583984338082,0.06848144531208201,0.07012939453082197,0.13439941406167968,0.21081542968621328,0.1333007812491864,0.07495117187454253,0.06982421874957383,0.0655517578120999,0.11206054687431603,0.15486173314760265,0.06160861449854138,-4.421365612494537e-06,KuruYaprak
621.9158172731259,17.276757049610055,0.08093442512486626,0.011371348812470455,0.8441401678486675,0.00012956680868701724,0.06146240234337486,0.07385253906204924,0.07379150390579961,0.12738037109297254,0.20849609374872743,0.12353515624924599,0.07440185546829588,0.07196044921831078,0.07037353515582047,0.11474609374929964,0.15146852017822338,0.06953463287150634,5.821400340528732e-06,KuruYaprak
454.9343863102408,14.16865063027188,0.11162671796263682,0.0138758169466211,0.8947555305000836,0.00019301344278231918,0.06140136718712523,0.0797729492182631,0.06524658203085176,0.11950683593677058,0.20263671874876318,0.12408447265549265,0.07293701171830483,0.07684326171828099,0.07562255859328844,0.12194824218675568,0.15113137951025618,0.07026438572166112,2.0670464516800517e-05,KuruYaprak
211.132759703017,6.032565322942969,0.44591575415885265,0.07873579042942896,0.971007547245867,0.00622536201993837,0.04064941406225189,0.050231933593443405,0.025939941406091675,0.0922241210931871,0.12988281249920725,0.18255615234263575,0.0544433593746677,0.0881958007807117,0.23406982421732134,0.10180664062437862,0.13202197671718155,0.10172499906467267,0.0006855354288183734,KuruYaprak
196.9788360397008,5.156804489390096,0.5726291259357014,0.12879497058936432,0.9704166468169875,0.0166487201062695,0.035095214843535796,0.04058837890600227,0.020385742187375575,0.07720947265577875,0.07250976562455744,0.17584228515517675,0.050537109374691545,0.10052490234313644,0.3381958007791858,0.0891113281244561,0.12337200565861257,0.11205858284721718,0.0012331477443619655,KuruYaprak
185.04343314545795,4.242055386454437,0.6132374926081687,0.1371987180420001,0.9774137372371987,0.018894920854246267,0.027404785156082734,0.0322265624998033,0.015869140624903143,0.07604980468703583,0.08032226562450975,0.19213867187382727,0.039855957031006736,0.09106445312444418,0.3748168945289623,0.07025146484332122,0.11647392780908485,0.1192124234682667,0.001917933945086855,KuruYaprak
208.07727383032622,5.321402951399519,0.560552085959328,0.12011082089222891,0.9705250019894789,0.014486370907970308,0.03692626953102462,0.0433349609372355,0.019226074218632653,0.07928466796826608,0.0690917968745783,0.18371582031137867,0.0482177734372057,0.09729003906190618,0.3305053710917327,0.09240722656193599,0.12345863794611399,0.11196313003036996,0.0012906596287275028,KuruYaprak
174.2656849415241,3.907556967457614,0.639213001803105,0.1547823194182177,0.9784259089891844,0.024024219193841116,0.02270507812486142,0.03216552734355368,0.013427734374918043,0.07299804687455445,0.0795288085932646,0.19097900390508435,0.040405273437253385,0.08184814453075044,0.4068603515600167,0.05908203124963939,0.11213126188967111,0.12330595230940669,0.0022788519524302464,KuruYaprak
181.17196303532995,4.302662202980567,0.6050418141485306,0.1443905430489567,0.9806689663166156,0.02090886751672349,0.024902343749848007,0.033691406249794366,0.015747070312403886,0.07226562499955892,0.10040283203063718,0.18255615234263575,0.042358398437241464,0.08007812499951124,0.383056640622662,0.06494140624960362,0.11540842897540383,0.12024421936045666,0.0020347379213298098,KuruYaprak
185.13355868117756,4.587821238142375,0.5842475098007742,0.13823946540522414,0.9817396030249808,0.019171379896311368,0.024719238281099124,0.03521728515603505,0.01617431640615128,0.08001708984326161,0.09991455078064017,0.19616699218630268,0.042236328124742206,0.08477783203073255,0.3575439453103177,0.06323242187461406,0.1182012792171861,0.11749993770599156,0.0015178097019979005,KuruYaprak
211.73190092864365,5.169256584606777,0.5412771731464505,0.1286496836212887,0.9815124277023088,0.016597775258958426,0.028991699218573048,0.03723144531227276,0.021362304687369615,0.08868408203070871,0.10705566406184658,0.1909179687488347,0.047180175780962036,0.09216308593693748,0.3184204101543065,0.067993164062085,0.11744676121782303,0.11825411641281222,0.0016770969682861465,KuruYaprak
214.7334188418351,5.131318442324244,0.5442574331069678,0.1230605412011221,0.980242618073401,0.015190591785731249,0.0328979492185492,0.04052734374975264,0.02001953124987781,0.0793457031245157,0.09936523437439351,0.18524169921761938,0.05126953124968708,0.08813476562446207,0.3229370117167789,0.08026123046826011,0.11735162824906235,0.11834852392917203,0.0017453559119745149,KuruYaprak
214.86591770839505,4.904149019235416,0.5753211041650867,0.13654169809504182,0.9791645969121954,0.018697568202872508,0.028869628906073794,0.0382080078122668,0.019836425781128927,0.077331542968278,0.09033203124944865,0.18341064453013053,0.04522705078097396,0.08728027343696727,0.35400390624783934,0.07550048828078917,0.11965680601137967,0.11601735449887247,0.0014038614511862459,KuruYaprak
228.96666415598236,4.911614342759827,0.580074385111401,0.1297622201781652,0.976707176003029,0.016904607139176818,0.03057861328106336,0.03961181640600823,0.017761230468641594,0.07684326171828099,0.08056640624950825,0.18835449218635036,0.046569824218465755,0.08953857421820349,0.3494873046853669,0.08068847656200752,0.12197362591305731,0.11357910173764182,0.0012258603725687723,KuruYaprak
221.29058634679512,4.371449281960992,0.626368893159616,0.15073345940120603,0.9751195226857642,0.022792723266532366,0.025695800781093164,0.035339355468534304,0.01641845703114979,0.07690429687453061,0.0644531249996066,0.1924438476550754,0.04168701171849556,0.086669921874471,0.39294433593510164,0.06744384765583836,0.11925837171584629,0.11642688068183105,0.0014943230353177957,KuruYaprak
200.72897299700622,4.1014675623100665,0.6447183143566398,0.16438981287336682,0.9766961887974295,0.027089346014836323,0.02319335937485844,0.03344726562479585,0.01397705078116469,0.07348632812455147,0.07073974609331823,0.18493652343637124,0.0388793945310127,0.0815429687495023,0.4196777343724385,0.06011962890588306,0.12004728842547584,0.11561326183419508,0.00121619849554756,KuruYaprak
235.60352567579838,4.405287060574039,0.6377428538034252,0.15936536401032053,0.971539775059916,0.025455382718606118,0.02215576171861477,0.032409667968552186,0.013183593749919533,0.06988525390582345,0.08270263671824522,0.18365478515512906,0.03881835937476307,0.07800292968702391,0.41436767577872086,0.06481933593710437,0.11411152392316598,0.12147566783910191,0.0018776094950220558,KuruYaprak
243.44171564514772,6.537465633524811,0.48905444865835535,0.11110747690001033,0.9738364344432366,0.012383847010061325,0.04071044921850152,0.046203613280967996,0.028259277343577516,0.08428955078073554,0.09143066406194195,0.17266845703019612,0.047424316405960544,0.08953857421820349,0.3064575195293795,0.09301757812443226,0.12674417713250544,0.10822980797128258,0.0010015808158934257,KuruYaprak
215.14975003777874,4.253581839194842,0.6365926455206559,0.1601243794674734,0.9725048899277206,0.02569526509425087,0.02239990234361328,0.03186035156230554,0.012939453124921023,0.0686645507808309,0.08813476562446207,0.18572998046761638,0.034790039062287656,0.07836914062452167,0.41479492187246825,0.062316894530869645,0.11444976016658374,0.12115704753375421,0.0017613193458774726,KuruYaprak
181.13756568137887,4.424233426591747,0.5909807114244734,0.1480172810320049,0.9799542025186768,0.021963492480681704,0.027770996093580497,0.0339965820310425,0.014343261718662455,0.07098388671831675,0.09826660156190023,0.19628906249880193,0.038024902343517915,0.08056640624950825,0.3729248046852238,0.06683349609334208,0.11666614304749229,0.11902432035393773,0.0016873772130638677,KuruYaprak
196.34254777884325,4.801866009981885,0.5551989798828076,0.14126589298162245,0.9795888129959591,0.0200044645546607,0.02917480468732193,0.03680419921852536,0.017272949218644574,0.07305908203080408,0.12005615234301723,0.18829345703010075,0.04071044921850152,0.07830810546827204,0.34649658202913514,0.06982421874957383,0.11904111801666564,0.11664900338519779,0.0015322108257303233,KuruYaprak
174.16840020789203,4.275709586575316,0.5851266047109167,0.15227863032517774,0.9794048179704895,0.023241784975398305,0.028503417968576028,0.03302001953104846,0.016845703124897183,0.07269287109330631,0.10498046874935925,0.1806640624988973,0.04046630859350301,0.07452392578079514,0.377807617185194,0.07049560546831972,0.12085603374990388,0.11476757763171148,0.001404705128194169,KuruYaprak
193.5266813658601,4.677877144816665,0.5615542647675629,0.14540714411945344,0.9789478525051306,0.021201670049999462,0.02960205078106932,0.03698730468727424,0.02050781249987483,0.07495117187454253,0.09619140624941289,0.19201660156132802,0.04315185546848662,0.07678222656203136,0.35522460937283185,0.07458496093704477,0.12448571043523604,0.11082005986050922,0.0011653654846636604,KuruYaprak
316.0462325963665,7.234646856012123,0.5580351661092018,0.3755214099977418,0.9673463307314087,0.14108971386494157,0.033813476562293616,0.04052734374975264,0.026245117187339812,0.06542968749960065,0.07141113281206414,0.13946533203039876,0.028259277343577516,0.07128906249956489,0.4365844726535853,0.08697509765571915,0.12363348997188162,0.11177002249091879,0.001061486418599963,KuruYaprak
302.4846776138822,6.976905317091607,0.5862068898879117,0.4320421184359772,0.9643441229125063,0.18672506589153448,0.0328979492185492,0.03833007812476605,0.023437499999856948,0.05957031249963641,0.06518554687460214,0.13739013671791142,0.028076171874828637,0.07458496093704477,0.4548339843722239,0.08569335937447696,0.1176933127045892,0.11558186921075679,0.0014265772044741074,KuruYaprak
216.9165569151413,5.784744651520354,0.6423888385428356,0.4462048284826913,0.9625223285434148,0.19912366253355857,0.03137207031230852,0.03326416015604697,0.018371582031137867,0.05102539062468856,0.05859374999964237,0.12268066406175121,0.026916503906085715,0.07037353515582047,0.511657714840627,0.07574462890578769,0.11437310950137844,0.1212294089387406,0.001917919701448138,KuruYaprak
204.0383974517921,4.541573262833926,0.7197997580322046,0.5415749656710729,0.9546443853449578,0.29332567319023406,0.02142333984361924,0.024841308593598378,0.012939453124921023,0.04394531249973178,0.0531005859371759,0.12316894531174823,0.02313232421860881,0.05786132812464684,0.5822143554651964,0.05737304687464982,0.09553981423742998,0.13018925220201527,0.003697369084939325,KuruYaprak
166.4133255219619,3.8539243172235715,0.7506088903695668,0.4908625220036521,0.9587315459039824,0.24101562447596062,0.018005371093640102,0.020874023437372595,0.014282226562412828,0.045043945312225074,0.04492187499972582,0.12786865234296954,0.020568847656124458,0.049560546874697506,0.6130371093712583,0.04583740234347023,0.09174372039084633,0.13074132414376965,0.0038300314266040076,KuruYaprak
240.9390073780115,5.820104944897241,0.5388380719899689,0.12459040855311346,0.9687594762327407,0.015580972416624721,0.037719726562269774,0.044189453124730285,0.023803710937354713,0.08074951171825714,0.07562255859328844,0.17327880859269237,0.04748535156221017,0.09246826171818562,0.3362426757791977,0.0884399414057102,0.12631993927278565,0.1087246554932922,0.0010133821297175856,KuruYaprak
250.33566055803885,4.423949945556082,0.6195741949025775,0.13850050709747236,0.9510435665261402,0.019257955084148373,0.03173828124980629,0.037048339843523875,0.016357421874900163,0.07269287109330631,0.0644531249996066,0.18579101562386602,0.04553222656222209,0.09454345703067295,0.3692626953102462,0.08258056640574596,0.12123024110666833,0.11437222744628585,0.0013582278338516497,KuruYaprak
159.1883282829053,3.4260825318525283,0.6537707024290055,0.14058334134126332,0.9625745863936443,0.01984691942855795,0.01898193359363414,0.033386230468546226,0.01184082031242773,0.07519531249954105,0.06695556640584133,0.2117919921862073,0.0426635742184896,0.08850097656195983,0.3857421874976456,0.06494140624960362,0.1216444769739791,0.1139315539792386,0.0011356347097303409,KuruYaprak
200.50908350254107,3.894576781341014,0.6329345560779983,0.1367848298040146,0.9565628006107548,0.018778076377563905,0.03015136718731597,0.0377807617185194,0.015014648437408358,0.0731201171870537,0.06292724609336592,0.18768310546760447,0.046020507812219114,0.09350585937442928,0.3768920898414496,0.07690429687453061,0.12110153062403747,0.1145085020882113,0.0012643517590339816,KuruYaprak
190.70726072311376,3.89710243873609,0.623124943589349,0.13359488327710162,0.9609330237791271,0.017909361430686523,0.03015136718731597,0.04016113281225488,0.014160156249913573,0.06951904296832569,0.06726074218708947,0.1851196289051201,0.04663085937471539,0.09429931640567443,0.36785888671650474,0.08483886718698218,0.12475477960744727,0.110517069883033,0.0010005491140861109,KuruYaprak
201.8725500263494,3.9327574748899194,0.6277850641373457,0.1289501652559755,0.958344782767376,0.016691874106122065,0.027099609374834598,0.038146972656017165,0.014831542968659475,0.07537841796828992,0.06970214843707456,0.19476318359256126,0.043090820312236995,0.09374999999942779,0.3645019531227752,0.07873535156201944,0.1187539420110582,0.11694134865863824,0.001563280077259742,KuruYaprak
201.57530447873287,4.048723863072679,0.6110384040506354,0.1241144382019924,0.9635515347279224,0.015462080263874413,0.029541015624819696,0.04217529296849258,0.015075683593657985,0.07617187499953508,0.07086181640581748,0.19012451171758957,0.04595947265596948,0.09478759765567146,0.35479736327908445,0.08050537109325863,0.12229522383123255,0.11323275143648644,0.001319516305540175,KuruYaprak
210.68809844650804,4.387948580584591,0.577006349673113,0.11762411263808373,0.9669396608099872,0.013877683235526423,0.03485107421853728,0.04370117187473327,0.01953124999988079,0.07836914062452167,0.07562255859328844,0.17669677734267153,0.04809570312470644,0.09545898437441735,0.3305053710917327,0.09716796874940693,0.1257289330319735,0.10940755535623604,0.0010731793271629827,KuruYaprak
195.34748429652984,4.189567558822567,0.5640027253843598,0.11330651865217159,0.9708147297433879,0.012880315835439495,0.04016113281225488,0.04479980468722656,0.020568847656124458,0.07904052734326757,0.07067871093706861,0.1806030273426477,0.05059814453094117,0.09838867187439948,0.3151245117168266,0.10003662109313942,0.12610421672051544,0.10897478743180984,0.0010422193304816972,KuruYaprak
302.6312191452491,7.3182509958767215,0.38905817880062776,0.05143888580739367,0.9672638301276196,0.002663148711248987,0.04595947265596948,0.06646728515584431,0.0382080078122668,0.10321044921812005,0.11968994140551946,0.1648559570302438,0.06982421874957383,0.1006469726556357,0.1626586914052572,0.12847900390546582,0.13749449918835574,0.09419681769808029,0.0004505675111347621,KuruYaprak
277.8617692704106,7.26312004967731,0.3896867509668279,0.06842146243598557,0.9713502516011698,0.004707482940008487,0.044738769530976934,0.06781005859333612,0.03784179687476903,0.10192871093687787,0.11718749999928474,0.1593627929677773,0.06652832031209394,0.10180664062437862,0.1824340820301365,0.12036132812426537,0.13638751721858092,0.0957926036748087,0.00042499723176676993,KuruYaprak
193.41137167039767,4.545338922709029,0.6018715444657949,0.14117621106188186,0.9605193505927955,0.02000889349942029,0.0322265624998033,0.04162597656224593,0.016967773437396437,0.07702636718702986,0.05603027343715802,0.18927001953009479,0.04608154296846874,0.09716796874940693,0.35852050781031175,0.0850830078119807,0.1268955618845869,0.10805227505618926,0.0008864863891101662,KuruYaprak
281.3691885782182,7.318471023660511,0.4071340056822737,0.06621008392550533,0.9690012811027012,0.004409426558743958,0.04339599609348513,0.06701660156209097,0.03472900390603803,0.10076904296813495,0.1137695312493056,0.1677856445302259,0.06634521484334506,0.10101318359313347,0.18914794921759553,0.11602783203054182,0.13824850187999604,0.09308667735074891,0.000261008622436856,KuruYaprak
294.6443150972218,6.969907537471084,0.4384296211671585,0.07825775107379294,0.9644372376027182,0.006163169641851914,0.04119873046849854,0.06042480468713119,0.03216552734355368,0.10211181640562675,0.09985351562439054,0.1788940429676581,0.07232666015580855,0.10571289062435478,0.19372558593631758,0.11358642578055672,0.13419199159199363,0.09884476295743656,0.0005228817829467795,KuruYaprak
286.1256075285569,6.674920634997276,0.4708612529304935,0.08359414355952129,0.964856644648074,0.007032431234128127,0.03686523437477499,0.060791015624628957,0.029235839843571556,0.09893798828064612,0.09161376953069084,0.17633056640517375,0.06756591796833761,0.10858154296808727,0.21533203124868572,0.11474609374929964,0.13221289917941945,0.1014767316259735,0.0007469494794299286,KuruYaprak
205.8006837693349,4.55525264566148,0.60350425912955,0.126816025141138,0.9624055058605263,0.01615873818233096,0.03497314453103654,0.03979492187475711,0.0166625976561483,0.07659912109328247,0.0562133789059069,0.19421386718631461,0.04498291015597544,0.10211181640562675,0.3482666015603743,0.08618164062447399,0.12525647373823268,0.10994814030590164,0.0011528026941428448,KuruYaprak
171.16139007668562,3.650429132889477,0.6752045115842388,0.14144178325931106,0.9594144285074256,0.020087752459717487,0.01947021484363116,0.030395507812314478,0.011718749999928474,0.07263183593705669,0.05694580078090243,0.20910644531122372,0.0395507812497586,0.08593749999947548,0.4162597656224593,0.057983398437146096,0.11968741477464302,0.11598577720796678,0.001313984949994747,KuruYaprak
226.17072363832102,4.02103378425502,0.6721995199540461,0.13911726622443632,0.9465611214265699,0.019428033287435233,0.022766113281111045,0.032653808593550694,0.010681152343684807,0.07305908203080408,0.05541992187466174,0.20227050781126543,0.040100097656005244,0.08966064453070276,0.41387939452872385,0.059509277343386784,0.11573159696546903,0.11993321155045851,0.0018136154776969547,KuruYaprak
180.13969027547296,3.731709357949919,0.6732774000829188,0.14192553683964143,0.9562968151914772,0.02022144140424061,0.0228881835936103,0.02960205078106932,0.012390136718674376,0.07073974609331823,0.05303955078092627,0.20404052734250464,0.040405273437253385,0.08892822265570723,0.4159545898412112,0.06201171874962151,0.12117919670179796,0.11442630841456708,0.0011044342188377223,KuruYaprak
174.88960829484063,3.8727735658595934,0.657499608697317,0.13594058964399086,0.9593607339613495,0.01856356329927223,0.023925781249853968,0.03186035156230554,0.012207031249925494,0.06860351562458128,0.06182861328087263,0.20721435546748526,0.03930664062476009,0.09051513671819754,0.39678955077882816,0.06774902343708648,0.11883759863014626,0.11685633453496215,0.001581057352294294,KuruYaprak
194.70323907053975,4.339939414253776,0.6239502329057491,0.13003072759466888,0.9600496925337552,0.016979200891551124,0.02819824218732789,0.036193847656029086,0.012878417968671396,0.06915283203082792,0.07812499999952316,0.19482421874881087,0.04486083984347619,0.09619140624941289,0.36322021484153305,0.07635498046828396,0.12055074628272765,0.1150882067801644,0.0015338621377901727,KuruYaprak
219.2263125619978,5.2054262702274245,0.5658441858203115,0.11899644656718768,0.9640963971011892,0.014213650287288746,0.03350830078104548,0.0371093749997735,0.015441894531155749,0.07153320312456339,0.10491943359310962,0.17761230468641592,0.04699707031221315,0.09149169921819157,0.33392333984171185,0.08746337890571616,0.12315408926024043,0.11229803234462611,0.001279241032189589,KuruYaprak
152.18393499286935,3.8598603447206523,0.5891729909289579,0.11127743663761375,0.9617652067121252,0.012462342106377502,0.029846191406067833,0.04254150390599035,0.017517089843643082,0.08355712890574,0.06744384765583836,0.20703124999873637,0.05395507812467068,0.10119628906188234,0.305725097654384,0.09118652343694343,0.12721189832817986,0.10767966704223435,0.0009450419392891389,KuruYaprak
207.30284214865145,5.068371000023158,0.5531796010999562,0.11421639620036697,0.9661777727132416,0.013093758194030398,0.035095214843535796,0.04144287109349705,0.01715087890614532,0.07568359374953806,0.10247802734312451,0.18103027343639508,0.05004882812469452,0.08673095703072063,0.32452392577926925,0.08581542968697622,0.12434838213676241,0.11097413045380287,0.0011610711767743392,KuruYaprak
184.30055710501856,4.902099261229642,0.5612864080261226,0.1193412630113703,0.9721339443940433,0.014295930492331188,0.03320312499979734,0.03692626953102462,0.018798828124885262,0.0808715820307564,0.09356689453067892,0.1882324218738511,0.044067382812231035,0.09002685546820051,0.33605957031044886,0.07824707031202241,0.12390107521158922,0.11147332116257094,0.0012176429682519338,KuruYaprak
178.60509299534033,4.732460625077381,0.5726569752829826,0.12700670896819014,0.973011196417166,0.01618827897342585,0.030822753906061873,0.037048339843523875,0.01812744140613936,0.08251953124949633,0.08831787109321095,0.18780517578010372,0.04315185546848662,0.08813476562446207,0.3516845703103535,0.07238769531205817,0.1256978909284159,0.10944321809214501,0.001005506446076895,KuruYaprak
180.30659242958927,4.886843355717838,0.5623766554558024,0.12366709672509515,0.9741160188123634,0.015351258553747449,0.031555175781057404,0.03625488281227872,0.019897460937378555,0.08050537109325863,0.08984374999945163,0.1928710937488228,0.043212890624736246,0.08526611328072957,0.34716796874788103,0.07342529296830184,0.12661259395002047,0.10838371106356487,0.0008367317355964968,KuruYaprak
204.59285983805978,4.599563843658808,0.6665700455527589,0.44152978985321867,0.9773568673005922,0.19507403431684406,0.023315429687357694,0.03192138671855516,0.01593017578115277,0.05883789062464088,0.054870605468415094,0.1423950195303809,0.02752685546858199,0.0668945312495917,0.5151977539031054,0.06311035156211481,0.1151659240991236,0.12047650266838159,0.0016940344523152546,KuruYaprak
201.60827607201765,4.657732553746227,0.6721382611748601,0.42329374201647907,0.9769197486284674,0.1792809502004346,0.024780273437348753,0.03173828124980629,0.018432617187387496,0.05548095703091137,0.04699707031221315,0.13183593749919534,0.029846191406067833,0.06622314453084581,0.5309448242155094,0.06372070312461107,0.11512651257736385,0.11813877622507428,0.0013707754927368009,KuruYaprak
205.54663680811393,4.548641398063939,0.69218848173208,0.4702986952204838,0.9751833367433465,0.22123117615540283,0.026794433593586457,0.028503417968576028,0.016296386718650534,0.04693603515596352,0.04217529296849258,0.11566162109304405,0.02746582031233236,0.06542968749960065,0.5685424804652799,0.06219482421837039,0.11009115429237487,0.12284470721454599,0.002211697717875154,KuruYaprak
245.4798563776775,5.36759473909558,0.6476598061952986,0.4836439147824759,0.9738086072062487,0.23394588692737717,0.03063964843731299,0.032714843749800326,0.020202636718626692,0.052185058593431484,0.048828124999701975,0.11260986328056267,0.02868652343732491,0.05981445312463492,0.5415649414029445,0.07275390624955594,0.1074696742354987,0.1205295259096432,0.0022239456888204535,KuruYaprak
229.16326667028005,4.6585008951266875,0.7110112042444192,0.5769586709369214,0.9713730671328213,0.3329032139399173,0.024230957031102104,0.028076171874828637,0.016784667968647554,0.044738769530976934,0.038696289062263814,0.10052490234313644,0.02386474609360434,0.052612304687178875,0.6118774414025153,0.05859374999964237,0.09530130508123354,0.12594035055407501,0.0029607976545482483,KuruYaprak
220.35710957359146,4.320404047058013,0.7318227538622808,0.564262331912402,0.9693437462997324,0.3184474395816671,0.020812988281122966,0.02410888671860285,0.014892578124909102,0.041809082030994815,0.033935546874792874,0.13494873046792633,0.020629882812374083,0.06738281249958873,0.5894165039026524,0.05206298828093223,0.10776395531046638,0.12714050379105163,0.0022374724322129836,KuruYaprak
154.0831450725395,3.5994765348905364,0.6162376792133608,0.11244371410486817,0.9493192036335238,0.012721769212178699,0.027404785156082734,0.04162597656224593,0.01446533203116171,0.08276367187449485,0.06323242187461406,0.20526123046749717,0.05187988281218335,0.10321044921812005,0.3267211914042558,0.08343505859324075,0.12491354183947259,0.11033759484276524,0.001056804830969278,KuruYaprak
194.33438858674538,3.574923395940525,0.657922579768832,0.15087467079219763,0.9666321292616256,0.022837098832924698,0.0284423828123264,0.034912109374786914,0.014282226562412828,0.06640624999959469,0.05181884765593372,0.18353271484262978,0.04339599609348513,0.09118652343694343,0.40850830077875666,0.07751464843702688,0.11818803616494981,0.11751325830309978,0.0015518984300404552,KuruYaprak
189.7467267082966,3.5387194407201163,0.6537010766353478,0.14705530650319074,0.9676080129546587,0.021698746561677373,0.030517578124813736,0.036621093749776484,0.01281738281242177,0.06610107421834654,0.05126953124968708,0.17712402343641892,0.0419921874997437,0.09082031249944568,0.4086303710912559,0.08410644531198665,0.11799368370044462,0.11770840401504937,0.0016597295648458146,KuruYaprak
269.3174894357595,4.038620628022482,0.6609231978390133,0.15078192102145238,0.9548766780753595,0.0228004025093843,0.028503417968576028,0.0333251953122966,0.013916015624915063,0.06854248046833164,0.05371093749967217,0.18090820312389583,0.040405273437253385,0.09252929687443524,0.415161132809966,0.07299804687455445,0.1122268432355452,0.12321896536504454,0.0022862341497833245,KuruYaprak
158.41972570273217,3.5301716579995417,0.6396394365067133,0.13809478830609503,0.9767892047213533,0.019131578364615664,0.028503417968576028,0.03686523437477499,0.014282226562412828,0.07092285156206712,0.06152343749962449,0.1808471679676462,0.03961181640600823,0.08752441406196579,0.40118408202880135,0.07873535156201944,0.11844113863526166,0.11725815301181523,0.001671420025886395,KuruYaprak
187.57095078643144,4.199655293841792,0.6215235307216989,0.14190859866038188,0.9780494421177046,0.02019400126390525,0.03009033203106634,0.03698730468727424,0.014831542968659475,0.07189941406206116,0.06915283203082792,0.17590332031142636,0.046569824218465755,0.09045410156194791,0.39343261718509864,0.07067871093706861,0.11880106883254228,0.11689347207201416,0.0016225471928251968,KuruYaprak
184.60023143483642,4.505875238312895,0.585213620147973,0.1324484147909481,0.9809602074225641,0.01759012838334982,0.03326416015604697,0.0402221679685045,0.017272949218644574,0.0791015624995172,0.07476806640579364,0.1775512695301663,0.04705810546846278,0.09393310546817667,0.3577270507790666,0.0791015624995172,0.11927985707072826,0.11640486873957431,0.0016786227187443597,KuruYaprak
174.31031982376152,5.027870993241821,0.6127405540794452,0.4173119717849339,0.9836160796233668,0.17425140789890714,0.027893066406079754,0.03424072265604101,0.019653320312380044,0.0637817382808607,0.08245849609324671,0.12329101562424749,0.030395507812314478,0.055847167968409134,0.49920654296570305,0.06323242187461406,0.11826138259921573,0.11743944463011018,0.001468307034909297,KuruYaprak
166.24906539656553,4.760864552978955,0.600766058986316,0.383060715971905,0.9843393393412284,0.14684251849757085,0.02368164062485546,0.03216552734355368,0.020141601562377064,0.06567382812459915,0.09295654296818263,0.1584472656240329,0.03448486328103952,0.0610961914058771,0.45208740234099065,0.05926513671838827,0.11643164215055817,0.11925372310934854,0.0016461401872792383,KuruYaprak
169.85611611847892,4.685060198245241,0.6487466729106872,0.4271858121911951,0.9831196536110518,0.18253609616492714,0.02801513671857901,0.0322265624998033,0.01947021484363116,0.05682373046840317,0.06311035156211481,0.10760498046809322,0.028808593749824165,0.046569824218465755,0.5588378906215891,0.058532714843392744,0.10858077342024827,0.12187783458633371,0.0022427463894747488,KuruYaprak
198.61499521436198,4.922441962071277,0.6509345043836978,0.5100253458857945,0.9789811375373819,0.2601474141990107,0.027099609374834598,0.03350830078104548,0.018188476562388985,0.05145263671843595,0.057556152343398705,0.11248779296806342,0.02819824218732789,0.05743408203089945,0.5462036132779162,0.06787109374958575,0.106708749579151,0.12579398676089334,0.0030753381469149467,KuruYaprak
166.03776316146292,3.762172125906715,0.6139814936073857,0.10952033415403381,0.9479947750847677,0.012063328879631689,0.029235839843571556,0.04187011718724444,0.014587402343660965,0.07922363281201646,0.06610107421834654,0.20184326171751804,0.05035400390594266,0.09790039062440246,0.33648681640419625,0.08239746093699708,0.12371102752236945,0.11168419511937577,0.001193834666939806,KuruYaprak
181.3074679391515,4.220259194424543,0.7186901659517032,0.5649314870826632,0.9776753938518445,0.3191633055129254,0.02099609374987185,0.024719238281099124,0.01611328124990165,0.041381835937247424,0.05279541015592776,0.0988769531243965,0.02239990234361328,0.04583740234347023,0.6273803710899207,0.049499511718447874,0.09258265720769807,0.12795218727856233,0.0038057058560997743,KuruYaprak
157.00823778209937,3.078500391375749,0.6853968463472015,0.15554448773445959,0.969548155504875,0.024293199996299374,0.01855468749988675,0.030517578124813736,0.011169433593681827,0.07159423828081302,0.0513305664059367,0.203979492186255,0.03857421874976456,0.08868408203070871,0.42279052734116945,0.06280517578086667,0.11687421210618686,0.11882001646832104,0.001723553223159826,KuruYaprak
183.49816409398358,3.501166498426728,0.6682428331748479,0.15054333652575097,0.9684153488289624,0.022753955027531886,0.025207519531096144,0.0339965820310425,0.013427734374918043,0.06951904296832569,0.052917480468427015,0.18927001953009479,0.03784179687476903,0.09143066406194195,0.4196166992161888,0.06677246093709245,0.11814265954991866,0.11755887786223747,0.0014776521862037487,KuruYaprak
192.83750675704394,3.509120194021616,0.6675870670534156,0.14979693866009075,0.9675505087155789,0.02252875915934798,0.022827148437360674,0.032531738281051444,0.012634277343672886,0.07196044921831078,0.054199218749669195,0.19183349609257913,0.038146972656017165,0.08850097656195983,0.4191284179661918,0.06823730468708351,0.12012139165813608,0.11553626719006423,0.001325401558872038,KuruYaprak
299.5742868048221,4.142506074074616,0.6764646017959652,0.14808118720426583,0.9529505496159453,0.021997001266297625,0.02093505859362222,0.03009033203106634,0.012207031249925494,0.06951904296832569,0.06201171874962151,0.19012451171758957,0.03613281249977946,0.08746337890571616,0.432861328122358,0.058654785155891995,0.10849080258851095,0.12652084224131635,0.0025918196598481154,KuruYaprak
273.1196162822004,4.115678547763299,0.660103379005955,0.14317348631762133,0.959179486476574,0.02057225129797851,0.02319335937485844,0.03485107421853728,0.01202392578117661,0.0700073242183227,0.06121826171837635,0.19610595703005307,0.04064941406225189,0.08947753906195387,0.40948486327875067,0.06298828124961554,0.10839884220574328,0.1265996397135713,0.002683519486076722,KuruYaprak
204.35173578550086,4.025110413502015,0.6204636404221316,0.1368545450982952,0.9750778051306294,0.01879464465284701,0.027587890624831617,0.03863525390601419,0.015258789062406868,0.07403564453079813,0.06793212890583537,0.18566894531136677,0.04327392578098588,0.09381103515567742,0.3831176757789116,0.07067871093706861,0.11773392851105167,0.11796821540874762,0.001558058194348745,KuruYaprak
218.49839284053206,4.788108763717388,0.630750887508901,0.3561886447223541,0.9772726688968734,0.12699914973723242,0.028869628906073794,0.03570556640603207,0.016784667968647554,0.06500244140585325,0.06121826171837635,0.14965820312408656,0.03375244140604399,0.07299804687455445,0.4628295898409251,0.07318115234330333,0.115314580598432,0.12033422318859957,0.0017746530906620234,KuruYaprak
240.25678404872076,5.654707625821285,0.5463305370922822,0.2846022242178946,0.9781513141564271,0.0811505231878154,0.030334472656064853,0.0377807617185194,0.02264404296861179,0.07263183593705669,0.09759521484315432,0.18090820312389583,0.03460693359353877,0.07519531249954105,0.368469238279001,0.07983398437451272,0.12194277200005305,0.11361222701449576,0.0011055833096683665,KuruYaprak
242.70643873709307,6.447945688859881,0.5842394959199559,0.4366033419967301,0.9810779155373284,0.19070116419009417,0.03161621093730703,0.033630371093544734,0.022521972656112537,0.05834960937464386,0.07214355468705967,0.14270019531162903,0.02893066406232342,0.06329345703086368,0.47717285155958755,0.06964111328082494,0.11991943533221315,0.115745871626947,0.001551896886822571,KuruYaprak
156.2034767780462,4.088609681125561,0.5895528015648187,0.11125805064511064,0.962882259655133,0.012440181009617019,0.03063964843731299,0.04425048828097992,0.018188476562388985,0.07696533203078024,0.07849121093702092,0.18475341796762235,0.049804687499696014,0.10144042968688086,0.3260498046855099,0.08941650390570424,0.12408968001005219,0.11126333216896346,0.001169028290506178,KuruYaprak
242.75735476471016,6.264706138787139,0.4005185711111376,0.048861165352835224,0.9793432325169305,0.0024015146531107716,0.04736328124971092,0.061767578124622996,0.034912109374786914,0.09771728515565357,0.12072753906176313,0.18194580078013947,0.07409667968704775,0.09759521484315432,0.15539550781155154,0.12847900390546582,0.13119778398342233,0.1027857930282866,0.000898613628746036,KuruYaprak
190.74591319885684,5.372294154744462,0.48885186043637985,0.0854326990581718,0.9707509966704615,0.007333174691385537,0.03808593749976754,0.05157470703093521,0.023742675781105085,0.08593749999947548,0.11236572265556417,0.17681884765517078,0.05395507812467068,0.09625244140566251,0.25744628906092865,0.10382080078061633,0.12658699548500313,0.10841360774430624,0.001124789141851367,KuruYaprak
248.4346873498411,7.065897291950606,0.4092584566729355,0.081419254105892,0.9678583018080434,0.006654856716427064,0.04943847656219825,0.057983398437146096,0.031433105468558147,0.0913085937494427,0.1135253906243071,0.16192626953026168,0.048278808593455326,0.09179687499943971,0.24047851562353223,0.11383056640555522,0.13336329790319582,0.09996003473043485,0.0006941864199707825,KuruYaprak
262.845560597378,7.818023823547579,0.3704037453520077,0.07042673245706171,0.9675278740493197,0.004979081830067854,0.04724121093721166,0.05816650390589498,0.03344726562479585,0.0922241210931871,0.1446533203116171,0.16503906249899267,0.05035400390594266,0.08618164062447399,0.21527099609243608,0.10742187499934434,0.13422768919015318,0.09879628143818889,0.0005612706308741599,KuruYaprak
290.92856847041725,8.104518041066985,0.35600253153235534,0.053433694784266114,0.9636637622548715,0.00288209937436075,0.03991699218725636,0.06219482421837039,0.03668212890602611,0.1040039062493652,0.15838623046778327,0.18035888671764916,0.06341552734336293,0.09094238281194493,0.1533203124990642,0.11077880859307386,0.1327504454391728,0.10077250124355334,0.0006327054097020357,KuruYaprak
181.18297544407335,5.377834083793031,0.5081705683053911,0.10956269925357877,0.9740084517493962,0.012053823655688294,0.037719726562269774,0.04797363281220719,0.021789550781117006,0.08526611328072957,0.09582519531191512,0.18048095703014844,0.04724121093721166,0.09161376953069084,0.2964477539044406,0.09564208984316624,0.12531431225502682,0.1098822138190118,0.0012038421443907254,KuruYaprak
267.60486751833054,7.139706502069073,0.38938528292218133,0.05310635541982914,0.9677416707902101,0.002850062176295249,0.040405273437253385,0.05554199218716099,0.029785156249818204,0.09985351562439054,0.14752197265534958,0.2037353515612565,0.06463623046835548,0.08715820312446802,0.16540527343649045,0.10595703124935328,0.12964683348700015,0.10473526787603343,0.0008773539742607721,KuruYaprak
245.5536404002488,6.025461101703309,0.4691937293791109,0.10448239739896488,0.9733848335773005,0.010969774417834866,0.03833007812476605,0.04681396484346427,0.027160644531084223,0.09057617187444716,0.10693359374934733,0.18591308593636527,0.04736328124971092,0.08770751953071468,0.27795410156080347,0.09124755859319307,0.12616235354889502,0.10890747594881064,0.0009887885160431691,KuruYaprak
231.40357963528214,6.59200624651229,0.45286985651024536,0.09351623474816716,0.9675702168160318,0.008786961886779566,0.04876708984345235,0.05175781249968409,0.028564453124825657,0.0880126953119628,0.09344482421817965,0.1760253906239256,0.0482177734372057,0.0913085937494427,0.2634887695296418,0.1104125976555761,0.13097992952038212,0.10306326131958207,0.0007143414265708566,KuruYaprak
184.37397275966214,5.079349139166903,0.5615662840491464,0.12119127867040716,0.96525603505088,0.01475199993252414,0.03588867187478095,0.04467773437472731,0.019897460937378555,0.08483886718698218,0.06750488281208798,0.17950439453015438,0.048278808593455326,0.09790039062440246,0.32946777343548905,0.09204101562443823,0.12698535501243782,0.10794673400938372,0.0008389812888723792,KuruYaprak
143.77973293446516,3.728701262089993,0.5821395305401899,0.10533422563490025,0.957136239424597,0.01116462756331735,0.034057617187292125,0.04937744140594862,0.016967773437396437,0.08374023437448888,0.06225585937462002,0.19622802734255232,0.054870605468415094,0.10552978515560589,0.2957153320294451,0.10125732421813197,0.1320037128962901,0.10174869804067117,0.0006165333491311338,KuruYaprak
200.89691849696027,4.105221476067886,0.6399450895725751,0.1432267554549031,0.9469566150500011,0.02059868079874439,0.031249999999809264,0.03765869140602015,0.013183593749919533,0.0700073242183227,0.051513671874685585,0.19360351562381833,0.04541015624972284,0.09417724609317518,0.3851318359351493,0.07806396484327353,0.12604578667120914,0.10904236531580289,0.0007538815724791691,KuruYaprak
168.6843568843384,3.778337205111868,0.6591823641763908,0.1427875498354759,0.9482078760910759,0.02046595110791685,0.02655029296858795,0.03173828124980629,0.012145996093675867,0.07232666015580855,0.054321289062168446,0.19848632812378852,0.04119873046849854,0.0926513671869345,0.39782714843507183,0.07275390624955594,0.12330155356677877,0.11213609881961988,0.001055083448039317,KuruYaprak
187.1420948388764,4.170037035386523,0.6428873899115191,0.13819830190721333,0.9489657352350587,0.019172429334006088,0.029541015624819696,0.03625488281227872,0.015197753906157239,0.07055664062456936,0.054565429687166954,0.19635009765505157,0.03808593749976754,0.09460449218692257,0.3939208984350957,0.07092285156206712,0.12421270524562956,0.11112597188150534,0.0008781907336497723,KuruYaprak
182.880530968092,4.2264315973943845,0.6347971495833062,0.13568618152587208,0.9474374961283444,0.018479181909680193,0.029052734374822677,0.035766601562281695,0.012390136718674376,0.06933593749957681,0.06848144531208201,0.1906738281238362,0.042358398437241464,0.08874511718695834,0.3895263671851225,0.07366943359330036,0.1246303423814436,0.1106573790054051,0.001012935925855963,KuruYaprak
219.7369182160221,5.083682003301411,0.5927653704850734,0.12332807356163665,0.9553508384649471,0.015277770009521796,0.028808593749824165,0.04016113281225488,0.017272949218644574,0.07861328124952018,0.07684326171828099,0.1886596679675985,0.04290771484348811,0.09497070312442034,0.3477172851541277,0.08404541015573702,0.12366843492966038,0.11173135626035323,0.0012147001246098567,KuruYaprak
205.1279219980296,4.9866191138631235,0.5721452662460331,0.11609099307259844,0.9620032168555716,0.013537585408307476,0.03540039062478393,0.04315185546848662,0.01812744140613936,0.08142089843700304,0.07427978515579663,0.18212890624888836,0.048828124999701975,0.09497070312442034,0.33386230468546224,0.08782958984321393,0.1254079733071287,0.10977530688143977,0.001142550649139038,KuruYaprak
212.6838999967041,5.157495936085498,0.5626059552010274,0.11510013911082646,0.9634323997991887,0.013306410197638806,0.036621093749776484,0.04254150390599035,0.019653320312380044,0.07794189453077428,0.07360839843705072,0.1864624023426119,0.045043945312225074,0.09289550781193301,0.3312988281229779,0.09393310546817667,0.12751090589730954,0.1073254240514278,0.0008802801149112072,KuruYaprak
193.85806936457396,4.920788302513971,0.5596479353245034,0.11079347562897593,0.9696631590157005,0.012332213586133884,0.031555175781057404,0.043518066405984386,0.017822265624891222,0.08587646484322585,0.07916259765576683,0.19445800781131312,0.045593261718471716,0.09667968749940992,0.31494140624807776,0.09039306640569827,0.12750782066735739,0.10732908943602992,0.0009472955894233932,KuruYaprak
203.23327667748794,5.434624744249342,0.5503372322878128,0.24851168253927192,0.9764884659787606,0.06180205936031142,0.032531738281051444,0.04052734374975264,0.019409179687381536,0.07226562499955892,0.09545898437441735,0.1619873046865113,0.03649902343727723,0.07550048828078917,0.3815307617164213,0.08428955078073554,0.11869133005820776,0.1170048970689373,0.0016292060631167295,KuruYaprak
221.25875182609457,5.702128033162132,0.5756297453999335,0.33842629806730706,0.9711879613421227,0.11456560875860107,0.033691406249794366,0.037048339843523875,0.01995849609362818,0.06756591796833761,0.0795288085932646,0.15374755859281158,0.03417968749979138,0.07574462890578769,0.4230957031224176,0.07543945312453955,0.11718564893846002,0.11851287462275972,0.0017839299346510535,KuruYaprak
194.95603089252904,4.030204353377396,0.6432946833641362,0.14166538893848524,0.9473987989909627,0.02015022961511018,0.029724121093568576,0.03765869140602015,0.012695312499922513,0.07281494140580556,0.048522949218453834,0.18969726562384218,0.04284667968723848,0.095520019530667,0.3868408203101389,0.08367919921823926,0.12499930959496615,0.11024042077139384,0.000860835028385473,KuruYaprak
152.4311056317413,3.626759858988427,0.6125347871326936,0.11928237348716415,0.9729864386424305,0.014318819734970652,0.024291992187351733,0.03613281249977946,0.013854980468665436,0.08300781249949336,0.07678222656203136,0.21130371093621028,0.04895019531220123,0.0933227539056804,0.3392333984354295,0.0731201171870537,0.12220770911214363,0.1133271971020413,0.0013708283419808878,KuruYaprak
179.11342644169548,3.9866495084552174,0.6212641875999294,0.12613586330340054,0.9689088274160422,0.015997476076803123,0.02819824218732789,0.03973388671850748,0.016052246093652023,0.07574462890578769,0.064880371093354,0.19812011718629077,0.044738769530976934,0.09484863281192109,0.36230468749778866,0.07537841796828992,0.1222982999756214,0.11322942900489173,0.0013016727335428424,KuruYaprak
178.79749730202502,3.5304739086040438,0.6370136636662299,0.13235033576220415,0.9696523334777813,0.017599662712002022,0.026733398437336832,0.036071777343529836,0.015380859374906122,0.07391357421829886,0.059692382812135666,0.20837402343622818,0.04058837890600227,0.09460449218692257,0.3699951171852417,0.07464599609329439,0.11847637650200585,0.11722254893994936,0.001748332714496031,KuruYaprak
216.9553135317191,4.285651887709955,0.667697685291441,0.14998403975382957,0.9492859677822925,0.022582419058808836,0.025695800781093164,0.03314208984354772,0.01281738281242177,0.0697631835933242,0.046020507812219114,0.19250488281132502,0.0371093749997735,0.0888671874994576,0.42694091796614414,0.06713867187459022,0.12116077725849336,0.11444581173751303,0.0012683774671161565,KuruYaprak
190.9510605896196,4.437885078895075,0.6319658793158941,0.14400946578450874,0.9636504892445323,0.020813279762560796,0.029296874999821185,0.033081054687298085,0.013183593749919533,0.07470703124954402,0.06158447265587411,0.18957519531134293,0.045166015624724325,0.0946655273431722,0.3862915039038922,0.0724487304683078,0.1227853152904621,0.1127011274077795,0.0012408012888110904,KuruYaprak
327.3342431528809,10.61889565185429,0.15147976206409056,0.015639237047833873,0.8998536142372368,0.00024552980893404873,0.024963378906097636,0.03991699218725636,0.0451049804684747,0.15277099609281755,0.3632812499977827,0.1744384765614353,0.06561279296834953,0.042114257812242956,0.03448486328103952,0.05731201171840019,0.14790668103515486,0.07682051469798876,4.5859066908890215e-05,KuruYaprak
627.7914692432021,15.857907219723499,0.1022995827535779,0.013708952366618775,0.8462395126187483,0.00018865079922284497,0.05786132812464684,0.07446289062454552,0.06695556640584133,0.13391113281168265,0.20281982421751207,0.1199951171867676,0.0689086914058294,0.07427978515579663,0.07757568359327652,0.12322998046799785,0.1549115198137167,0.06148332133982017,-2.4160789443560615e-05,KuruYaprak
220.21790464285877,9.786891648002676,0.13443761468107215,0.016622400515149113,0.9258452175001237,0.0002770164340899677,0.06237792968711927,0.07574462890578769,0.07073974609331823,0.12677001953047626,0.1873168945301067,0.1248779296867378,0.07824707031202241,0.07745361328077725,0.07708740234327949,0.11938476562427133,0.15168924131054495,0.06905180550883344,4.561855242185597e-05,KuruYaprak
465.5779077574392,13.287449770213676,0.1256905284481114,0.013275644673963645,0.9183474294849416,0.00017668584124558485,0.06573486328084878,0.08129882812450379,0.06842041015583239,0.1144409179680515,0.18615722656136377,0.12060546874926388,0.06982421874957383,0.08197021484324969,0.08374023437448888,0.12780761718671993,0.1509880992168227,0.07057174837335806,7.164717679055689e-06,KuruYaprak
433.0715772057067,12.954612518601419,0.1279804677496683,0.013252102340371672,0.9311575503904126,0.0001762614855215075,0.06127929687462598,0.06933593749957681,0.05535888671841211,0.12042236328051499,0.22393798827988318,0.14349365234287417,0.07427978515579663,0.06427001953085773,0.07104492187456637,0.11657714843678846,0.14965894098182528,0.07334834120513072,3.955333129328404e-05,KuruYaprak
273.031894098979,10.129229449866147,0.15945579043316538,0.01854844862418846,0.9361068924450732,0.00034597866440483295,0.05102539062468856,0.06793212890583537,0.05920410156213864,0.13226318359294273,0.22381591796738393,0.14141845703038686,0.06988525390582345,0.07434082031204625,0.07116699218706563,0.10894775390558503,0.1500667394100096,0.07251035440649985,6.435151276667306e-05,KuruYaprak
283.6163128381305,10.384971000411786,0.15575799479991997,0.0179967191301423,0.9338696845697008,0.0003257912521938081,0.05340576171842403,0.06744384765583836,0.058532714843392744,0.1315307617179472,0.21832275390491745,0.1358032226554211,0.07476806640579364,0.0755615234370388,0.0722045898433093,0.1124267578118138,0.15031663089457564,0.07199089004757867,5.6751838571175246e-05,KuruYaprak
390.6429596922052,12.015412843326704,0.13153030645095432,0.01482517952555146,0.8809213646304643,0.00022058842575853641,0.05566406249966025,0.0766601562495321,0.06506347656210289,0.12786865234296954,0.2012939453112714,0.12847900390546582,0.07818603515577278,0.0728759765620552,0.07568359374953806,0.11822509765552841,0.14867742928359198,0.07531799117651028,6.744579334637507e-05,KuruYaprak
489.74375748366526,13.372345498598781,0.12978143017508612,0.016262802742050733,0.8038255261598082,0.000265435772159298,0.0426635742184896,0.06213378906212076,0.062072753905871136,0.13592529296792036,0.2575073242171783,0.15026855468658282,0.07427978515579663,0.061340332030875605,0.0599975585933838,0.09381103515567742,0.1503362073249714,0.07195000028207746,1.7096072482681194e-05,KuruYaprak
437.301808490385,13.432729259991287,0.11494346821308352,0.01279133190654693,0.9114930354210541,0.0001642107911205963,0.041809082030994815,0.05810546874964535,0.05682373046840317,0.14648437499910594,0.27734374999830724,0.14849853515534364,0.07299804687455445,0.055847167968409134,0.052490234374679624,0.08959960937445312,0.15406314562513915,0.06357928069704968,-1.0784943733826015e-05,KuruYaprak
346.99143332664016,12.232818942201224,0.1197477012418667,0.01517859452319407,0.8537335898116913,0.0002311646034069467,0.05871582031214163,0.07525634765579067,0.06585693359334804,0.13079833984295167,0.20092773437377362,0.12896728515546285,0.07257080078080706,0.07360839843705072,0.0731201171870537,0.12017822265551649,0.15266592488666877,0.06686473773283176,1.5664100326921295e-05,KuruYaprak
253.28284069068,6.474881715388222,0.556615434011055,0.22080279512584777,0.9613506233862749,0.04876673049902068,0.03186035156230554,0.04364013671848364,0.020874023437372595,0.06658935546834356,0.08795166015571318,0.1617431640615128,0.046447753905966505,0.07550048828078917,0.39257812499760386,0.07281494140580556,0.11987202941916207,0.11579496678432899,0.0014070837371660107,KuruYaprak
462.45894550384986,12.100341872559033,0.2815732555524446,0.030909555063979025,0.9447702313833449,0.00096286403781378,0.04467773437472731,0.07324218749955297,0.0433349609372355,0.11303710937431007,0.15148925781157538,0.1568603515615426,0.06225585937462002,0.09344482421817965,0.1530761718740657,0.10858154296808727,0.13927083202305826,0.0915500580006916,0.0002949445869629891,KuruYaprak
228.31681215706135,6.6895949260646645,0.4625475284351805,0.07022444790534237,0.9675447395197816,0.004978698574414513,0.03637695312477797,0.051086425780938194,0.028381347656076774,0.08953857421820349,0.10693359374934733,0.18542480468636824,0.06085205078087859,0.08160400390575193,0.2664794921858735,0.0933227539056804,0.12888903644511954,0.10566642822960581,0.000847074587410941,KuruYaprak
159.9173969441683,4.306526191177291,0.5988003746326076,0.1239860917010826,0.9641382495619515,0.015446229025473532,0.02093505859362222,0.04125976562474817,0.017211914062394945,0.06945800781207606,0.08935546874945462,0.2015380859362699,0.04901123046845086,0.07507324218704178,0.37451171874771416,0.061645507812123745,0.11985868062751785,0.11580878398544021,0.0013336408477821829,KuruYaprak
172.00122522901322,4.617542547585028,0.5619983091916175,0.0902615299478116,0.9601537446750427,0.008225872102017865,0.023010253906109557,0.03961181640600823,0.016479492187399417,0.07366943359330036,0.10095214843688383,0.23480224609231687,0.05017089843719378,0.07879638671826907,0.3140258789043333,0.06848144531208201,0.11994948170419784,0.11571473375803695,0.0013389863342910349,KuruYaprak
238.03673434690933,7.59192995729722,0.35030816182701496,0.033852428276279024,0.9640034989489716,0.0011560420069879592,0.045593261718471716,0.06249999999961853,0.039428710937259345,0.10925292968683317,0.13604736328041964,0.1730957031239435,0.06878662109333016,0.09161376953069084,0.16125488281151576,0.1124267578118138,0.13718680925885676,0.09464437192812802,0.0002915913783877803,KuruYaprak
514.8462605206485,10.007029264058287,0.33160848852427094,0.0482680018261277,0.9541354047169658,0.0023399284242690264,0.0759887695307862,0.08734130859321691,0.03936767578100972,0.07806396484327353,0.07342529296830184,0.11572265624929368,0.07263183593705669,0.10260009765562378,0.17529296874893008,0.17956542968640402,0.14143072303596643,0.08817668826681642,0.00026433274230139515,KuruYaprak
451.03151943413405,8.586812161905343,0.34942885432589854,0.05007674496030122,0.9590088493038555,0.0025170944410506935,0.07543945312453955,0.08148193359325268,0.045593261718471716,0.07684326171828099,0.07501220703079216,0.11077880859307386,0.07348632812455147,0.10961914062433094,0.17462158203018419,0.17712402343641892,0.13632208738464666,0.0958856937301528,0.0005988631919320749,KuruYaprak
337.0314396331932,6.369930763298921,0.3652090472282561,0.04551372550171058,0.9615665202462367,0.0020761217361304684,0.07482910156204328,0.08258056640574596,0.04241943359349109,0.0828857421869941,0.0791015624995172,0.10760498046809322,0.07452392578079514,0.10876464843683614,0.15814208984278477,0.18914794921759553,0.1371607338375715,0.09468215704988811,0.0007486707129177199,KuruYaprak
307.5897449373032,5.673904777496996,0.36552132011709154,0.04381897741918807,0.9608289794990914,0.0019230585128503625,0.08148193359325268,0.080444335937009,0.043212890624736246,0.07696533203078024,0.07659912109328247,0.11016845703057758,0.07189941406206116,0.10736083984309472,0.154663085936556,0.19720458984254635,0.13597402011621465,0.09637864713709231,0.0007758706467913117,KuruYaprak
417.8415867769289,7.532622721495316,0.3331917919840937,0.03725402018110713,0.9577527942155741,0.0013906171355539884,0.08160400390575193,0.08587646484322585,0.04241943359349109,0.07800292968702391,0.07611083984328545,0.10522460937435775,0.07324218749955297,0.10784912109309173,0.15563964843655004,0.19403076171756573,0.13712161184877397,0.09473880585066664,0.0007985323703643951,KuruYaprak
483.36673351862606,8.990699375929774,0.34646891657348833,0.046464227459440156,0.955830668992224,0.0021674711898034453,0.07141113281206414,0.07629394531203433,0.04492187499972582,0.08581542968697622,0.08184814453075044,0.12561035156173334,0.0733032226558026,0.10760498046809322,0.17144775390520356,0.1617431640615128,0.13674433089472632,0.0952825573706207,0.0005580352062301272,KuruYaprak
451.97961879129815,12.89854539474777,0.11608822552466486,0.013957030838630176,0.8580045745321815,0.00019520738833936108,0.08160400390575193,0.09057617187444716,0.07403564453079813,0.1071166992180962,0.12261962890550158,0.10223388671812601,0.07794189453077428,0.08679199218697026,0.10003662109313942,0.1570434570302915,0.15633380843165678,0.057771256825909376,-1.5681926199012116e-05,Oak
450.4845599105505,13.423149756456464,0.11283826245944725,0.017853444516348158,0.7411331263317139,0.0003192070425457403,0.09454345703067295,0.09436035156192407,0.06744384765583836,0.08789062499946355,0.10516357421810812,0.10028076171813793,0.07720947265577875,0.09594726562441439,0.1044311523431126,0.17272949218644573,0.15756182406140512,0.054332765184884106,-2.7013684021682737e-05,Oak
2232.459160688056,32.32775481566939,0.051826183704127025,0.009924667471142356,0.5946095899147195,9.859378316103664e-05,0.11773681640553138,0.10778808593684211,0.06018066406213268,0.07611083984328545,0.08721923828071765,0.07513427734329141,0.06304931640586517,0.10186767578062825,0.11193847656181678,0.19897460937378555,0.1568383825588111,0.05638705108810207,-2.9949527892893976e-05,Oak
1021.7467581928325,20.334542618305846,0.09940543802195924,0.01574101793786966,0.5220682170937271,0.0002483969613218571,0.09716796874940693,0.09381103515567742,0.06249999999961853,0.09381103515567742,0.12084960937426238,0.0944213867181737,0.06988525390582345,0.08905029296820648,0.10498046874935925,0.1735229492176909,0.15622188873273204,0.05807322321913987,-6.765587973560456e-05,Oak
1110.6108481085064,22.1616269365368,0.06947505473377892,0.01082356581125033,0.7956644151835197,0.00011734625574222605,0.08874511718695834,0.09326171874943077,0.07403564453079813,0.10076904296813495,0.1206665039055135,0.10748291015559397,0.07580566406203731,0.08837890624946057,0.09246826171818562,0.15838623046778327,0.15740118660038288,0.054796388849764566,-2.502078476459384e-05,Oak
1309.7502076764454,20.117385973057043,0.12960756892819542,0.017611476753931182,0.7008075298830516,0.0003111863250672621,0.08544921874947846,0.09136962890569232,0.06201171874962151,0.09149169921819157,0.11480712890554927,0.11407470703055374,0.07714843749952913,0.09503173828066996,0.10668945312434881,0.16192626953026168,0.15355968110786977,0.06478581721243819,-2.3883279932657903e-06,Oak
1413.7155683765852,26.41391524970809,0.059259890014906925,0.01100877903174987,0.6313103025520455,0.00012126232778360297,0.11920166015552244,0.1030883789056208,0.06433105468710736,0.07611083984328545,0.07507324218704178,0.07586669921828694,0.06457519531210586,0.0984497070306491,0.12390136718674376,0.19940185546753295,0.15965626863480362,0.04782942253539858,-3.673222432489039e-05,Oak
692.4916245340802,15.2068298706919,0.1410006882680033,0.015914083339479444,0.8268572532217942,0.0002548717365398551,0.05761718749964833,0.07165527343706264,0.06365966796836145,0.12792968749921918,0.2059936523424927,0.14147949218663647,0.0755615234370388,0.07067871093706861,0.07073974609331823,0.11468505859305002,0.15065683139003033,0.07127620170219874,-1.92557334106714e-05,Oak
1348.288882554486,23.03535363320989,0.10346239020822517,0.013650650666582779,0.5376192979928803,0.0001867924131683793,0.10150146484313048,0.09539794921816773,0.06219482421837039,0.08447265624948441,0.10504150390560887,0.09094238281194493,0.07440185546829588,0.09136962890569232,0.11083984374932349,0.18383789062387793,0.15433744324491053,0.06291050299221622,-6.692693183396581e-05,Oak
529.3381768912456,15.32608807795868,0.0956160473959405,0.012987218656432108,0.8200050471916204,0.00016915959658158437,0.07879638671826907,0.09582519531191512,0.06768798828083686,0.10034179687438756,0.1423950195303809,0.11395263671805449,0.07720947265577875,0.08898925781195685,0.0870971679682184,0.14770507812409847,0.15766148948696776,0.05404287656096725,-3.99383764606777e-05,Oak
560.2661396495255,13.682086856362595,0.14736556520511487,0.025760363768137676,0.8754106423438373,0.0006646059343111406,0.05554199218716099,0.06939697265582644,0.06414794921835847,0.12432861328049115,0.18853759765509925,0.15032958984283246,0.07824707031202241,0.07391357421829886,0.08422851562448591,0.1113281249993205,0.15422387655450814,0.06318839825783493,-3.315496497273357e-05,Oak
757.7882261038426,18.200097529102187,0.08002947348155484,0.012010659701490008,0.8233372396127813,0.00014443812227829577,0.1030883789056208,0.0975341796869047,0.06719970703083984,0.08496093749948144,0.09423828124942481,0.09045410156194791,0.07128906249956489,0.09472656249942184,0.10876464843683614,0.18774414062385408,0.15823019665943586,0.05235439465248325,-3.561813347407146e-05,Oak
1172.3879054712563,21.10511563992112,0.09142789392923824,0.011807855892103418,0.7088297147130033,0.00013984494624939533,0.08496093749948144,0.08935546874945462,0.06713867187459022,0.10046386718688681,0.1491088867178399,0.1130981445305597,0.06860351562458128,0.08642578124947249,0.08850097656195983,0.15234374999907016,0.1543312911142483,0.06292559381582968,-5.882360780283815e-05,Oak
791.4748782036904,17.670204508378042,0.0890307875707463,0.014870841710470609,0.7519678141167042,0.0002213514070590593,0.10827636718683913,0.09960937499939203,0.06854248046833164,0.08258056640574596,0.09002685546820051,0.08325195312449186,0.06787109374958575,0.09655761718691065,0.11285400390556119,0.1904296874988377,0.1572781284744839,0.05514859996205033,-2.6360414934935527e-05,Oak
255.92308848290384,10.301070301359605,0.12008344736674832,0.021613646683794528,0.8480988685330838,0.00046755470941219605,0.09924316406189426,0.09741210937440543,0.06829833984333314,0.08618164062447399,0.08996582031195088,0.08483886718698218,0.07073974609331823,0.09698486328065804,0.11694335937428622,0.18939208984259404,0.15920157719816264,0.04932175576734089,-2.742753087590369e-05,Oak
572.7230257078264,15.932089641524483,0.08678001753898337,0.011778872874384555,0.8410369943847729,0.00013899751263019784,0.07574462890578769,0.08355712890574,0.06958007812457531,0.11462402343680038,0.1555175781240508,0.11364746093680635,0.08380126953073852,0.08239746093699708,0.08081054687450677,0.14031982421789355,0.15708667960565084,0.05569158701877859,-3.192058705914878e-05,Oak
361.5303886584499,11.43733373794905,0.15373144060231161,0.016751448871053273,0.9068133380141483,0.00028176584688487756,0.06500244140585325,0.07659912109328247,0.05718994140590094,0.1168823242180366,0.18273925781138464,0.129760742186708,0.08105468749950528,0.07366943359330036,0.07940673828076533,0.13769531249915956,0.149531671205643,0.07360745261128802,2.8719000539502983e-05,Oak
1135.7913603796953,22.171367616174756,0.07911464617761481,0.011997871036366766,0.6044161464510407,0.00014424018361151641,0.09167480468694046,0.09051513671819754,0.0659790039058473,0.09930419921814389,0.13604736328041964,0.10473632812436073,0.06945800781207606,0.08813476562446207,0.09368896484317817,0.16046142578027062,0.15545815279457495,0.060087773330386,-6.09332490567236e-05,Oak
1538.5138037465763,26.37510704709269,0.06747388347488194,0.010776415678231451,0.5570499672830661,0.00011629887906759194,0.11151123046806938,0.1026611328118734,0.0637817382808607,0.08203124999949932,0.08984374999945163,0.0853271484369792,0.07067871093706861,0.09478759765567146,0.1082153320305895,0.19116210937383324,0.15887986169116658,0.05034845899814018,-5.497067211022622e-05,Oak
430.93520478449466,11.995632866266215,0.13413940404986324,0.01564467195728432,0.8456783149177279,0.00024563924876036005,0.06878662109333016,0.08538818359322883,0.07214355468705967,0.11468505859305002,0.15216064453032127,0.12585449218673184,0.08105468749950528,0.08300781249949336,0.07922363281201646,0.13769531249915956,0.15402924997265005,0.06366135347921058,-2.386425647659098e-05,Oak
432.43263359575826,13.07976279624482,0.11588642055634325,0.014926791890962594,0.8337373592975186,0.0002234603013710982,0.08435058593698516,0.09027099609319902,0.06396484374960959,0.0913085937494427,0.1435546874991238,0.10845947265558802,0.07617187499953508,0.08789062499946355,0.09338378906193003,0.1606445312490195,0.15469917857093007,0.062015658695809966,-3.975891841083034e-05,Oak
455.5549594771273,13.583193510137551,0.10563330857281636,0.01388301166917197,0.8623298456521619,0.00019316543632685895,0.08123779296825416,0.08544921874947846,0.07672119140578172,0.10632324218685105,0.13061523437420278,0.10772705078059248,0.07763671874952614,0.0884399414057102,0.09246826171818562,0.15338134765531383,0.15542096014199164,0.060183909166135294,-2.6481767572799394e-05,Oak
728.7194958179709,17.282709545889368,0.09782014297045198,0.013153614991693917,0.7485141349452471,0.00017339772477224989,0.09704589843690767,0.09307861328068189,0.06585693359334804,0.09173583984319009,0.10565185546810514,0.10028076171813793,0.07385253906204924,0.09436035156192407,0.1030883789056208,0.17504882812393158,0.15641162230207345,0.057560248286875594,-7.43008206174313e-06,Oak
1137.9505490886802,22.052494729990915,0.07772006945630577,0.01227406652222124,0.644850174192829,0.00015090738049313666,0.09759521484315432,0.09100341796819456,0.06604003906209692,0.09625244140566251,0.11846923828052691,0.10345458984311856,0.06945800781207606,0.08587646484322585,0.09967041015564165,0.1721801757801991,0.15653647542485885,0.05721983603399607,-4.9182923611285466e-05,Oak
2394.158597649617,33.943634016179935,0.05631843125329776,0.009256265304607277,0.5117111711437387,8.57543400161159e-05,0.12347412109299637,0.10894775390558503,0.061340332030875605,0.07086181640581748,0.07611083984328545,0.07238769531205817,0.05859374999964237,0.10162353515562973,0.1228637695305001,0.2037963867175061,0.15967995041403626,0.04775030062982504,-3.980639279153273e-05,Oak
482.90489047777726,12.224002209723805,0.16306947504088504,0.02041370210293083,0.8165938510012651,0.00041853032191234733,0.064880371093354,0.08026123046826011,0.05957031249963641,0.11218261718681528,0.17749023437391667,0.13281249999918937,0.07922363281201646,0.08032226562450975,0.08294677734324372,0.13031005859295464,0.1505538784058552,0.07149340858107987,4.707698498216315e-06,Oak
1244.2709273427854,21.593473058042353,0.09941686656627924,0.01222475245090947,0.7142187826365585,0.0001499276654925334,0.08239746093699708,0.09191894531193896,0.05957031249963641,0.0997924804681409,0.14971923828033618,0.11810302734302915,0.07702636718702986,0.08459472656198368,0.08703613281196877,0.14984130859283543,0.15356417302589329,0.06477516913776817,-3.276663426674359e-05,Oak
947.3920942334797,20.61152139101305,0.07697629184010973,0.013183358473718392,0.6980766224210351,0.00017398104999970815,0.11096191406182274,0.10351562499936819,0.06524658203085176,0.07489013671829291,0.08099365234325565,0.0828857421869941,0.06878662109333016,0.09741210937440543,0.11834716796802766,0.19696044921754785,0.15928791455553812,0.04904220683116599,-2.279501583921338e-05,Oak
893.4314910740297,19.045495255055123,0.07761743127228997,0.011202419823151396,0.8489736215237335,0.00012571579072278435,0.08740234374946654,0.08996582031195088,0.07232666015580855,0.10327148437436967,0.12103271484301127,0.10241699218687489,0.07897949218701794,0.0908813476556953,0.09216308593693748,0.1615600585927639,0.15516767667197645,0.06083395343028881,2.1336186636418804e-05,Oak
372.92373754671263,11.147563806846813,0.13034818897605924,0.015405556054944041,0.9003210014991694,0.00023758469009223362,0.09307861328068189,0.08697509765571915,0.06463623046835548,0.0933227539056804,0.11859130859302618,0.10473632812436073,0.07873535156201944,0.09179687499943971,0.10058593749938607,0.1675415039052274,0.15425949681689619,0.06310138996629484,-1.1060401642144306e-05,Oak
490.58298874021955,13.800835379014998,0.10586847004744311,0.013908534572640064,0.8476117912588357,0.00019396870476908587,0.07897949218701794,0.08526611328072957,0.07141113281206414,0.10778808593684211,0.14141845703038686,0.11651611328053883,0.07550048828078917,0.08447265624948441,0.08874511718695834,0.14990234374908507,0.1558270106886445,0.05912461850864755,-2.0598180329176794e-05,Oak
360.16925985416805,11.970817801011343,0.12022823905957791,0.01447705683253157,0.8948417417501429,0.00021017614352072586,0.06695556640584133,0.0853271484369792,0.07019042968707159,0.11505126953054778,0.16210937499901057,0.12438964843674077,0.08325195312449186,0.08587646484322585,0.0762329101557847,0.13061523437420278,0.15398825942768912,0.06376044018255697,-9.384723749671727e-06,Oak
1293.9802811756106,23.001743874584985,0.07362700216471792,0.010213771383308005,0.7632130139332977,0.00010448903971573913,0.08404541015573702,0.09362792968692854,0.07592773437453657,0.09942626953064315,0.1231079101554986,0.10565185546810514,0.08111572265575491,0.08905029296820648,0.08972167968695238,0.15832519531153366,0.15492466357997314,0.0614501943731845,-1.618914254893079e-05,Oak
1137.4351449641813,22.998449996902895,0.06268021601448832,0.01023261692538988,0.7402316661620066,0.00010482709610389867,0.10302734374937117,0.09606933593691364,0.07128906249956489,0.08520507812447994,0.1040039062493652,0.09216308593693748,0.07098388671831675,0.09423828124942481,0.10485839843685998,0.1781616210926626,0.15832715868816205,0.052060432153978764,-1.89909617807261e-05,Oak
415.8436444060717,12.313743393112734,0.1410716960132616,0.023728844065081994,0.7176274759009833,0.00056516213896827,0.08032226562450975,0.09295654296818263,0.06982421874957383,0.09289550781193301,0.12884521484296357,0.10662841796809919,0.0817871093745008,0.09075927734319604,0.09912109374939501,0.1568603515615426,0.1550347375088755,0.06117195386337846,-6.035834657398709e-06,Oak
622.6491043646683,16.294563436784244,0.09306299176727785,0.012574257659709119,0.8650257191736354,0.0001582516584868159,0.1093139648430828,0.09820556640565059,0.05957031249963641,0.08050537109325863,0.10217285156187639,0.09039306640569827,0.06835937499958276,0.09277343749943376,0.1113281249993205,0.18737792968635633,0.15777024515104,0.05372455229434524,-3.958725704295975e-05,Oak
412.980803938185,11.950629979385326,0.125678186369313,0.01593401680228726,0.8855832975077192,0.00025475658306940707,0.07751464843702688,0.0913085937494427,0.06604003906209692,0.10394287109311558,0.14324951171787567,0.11083984374932349,0.08197021484324969,0.0857543945307266,0.08966064453070276,0.14971923828033618,0.15368364202908769,0.06449120828761229,1.1211482476380273e-06,Oak
1321.9803597655912,21.67954315596414,0.11227782899230256,0.013668063294758672,0.7035806024630463,0.0001876221808927579,0.07299804687455445,0.07604980468703583,0.0637817382808607,0.11834716796802766,0.1688842773427192,0.12811279296796804,0.07525634765579067,0.07708740234327949,0.07800292968702391,0.14147949218663647,0.15131269943775771,0.06987306178050783,-1.6376434734745436e-05,Oak
1508.243145474858,25.437520464889626,0.08998295329463953,0.012247307043830615,0.6270418213972847,0.00015035520729863165,0.10723876953059547,0.09680175781190917,0.06658935546834356,0.08367919921823926,0.0997924804681409,0.0857543945307266,0.06811523437458425,0.09283447265568338,0.11303710937431007,0.18615722656136377,0.15568990159094637,0.05948472339041907,-6.484136187924337e-05,Oak
614.2663292826932,16.004038000264345,0.09786469435521634,0.01576422545641519,0.783033216334169,0.00024885322813344665,0.0964355468744114,0.09545898437441735,0.06970214843707456,0.09246826171818562,0.10455322265561186,0.09484863281192109,0.06915283203082792,0.09680175781190917,0.10565185546810514,0.17492675781143233,0.1570041810498525,0.05592374189047853,-1.6347065892814118e-05,Oak
1466.3710657774284,23.440479759868023,0.09929558080465772,0.014855258929091954,0.5926288637100834,0.00022174718702532665,0.08032226562450975,0.08947753906195387,0.06945800781207606,0.11059570312432497,0.13653564453041664,0.10974121093683019,0.07714843749952913,0.08898925781195685,0.08813476562446207,0.14959716796783692,0.15349108138174178,0.06494817711285882,-5.6749550545787414e-05,Oak
704.6601957267033,17.43487686194257,0.08554037451791911,0.011454227042228919,0.8294085286331976,0.0001317849294970475,0.077331542968278,0.09545898437441735,0.07055664062456936,0.10626220703060142,0.1379394531241581,0.11151123046806938,0.07495117187454253,0.09100341796819456,0.08856201171820946,0.1464233398428563,0.15551999036103537,0.05992754268466451,-4.390639521011753e-05,Oak
1277.8712001917543,25.460729339430337,0.05233932293801648,0.009704328848019247,0.701111578456185,9.428024012919674e-05,0.10815429687433988,0.10339355468686894,0.06726074218708947,0.08312988281199261,0.08984374999945163,0.0881958007807117,0.06835937499958276,0.09826660156190023,0.10864257812433689,0.18475341796762235,0.1605205804339955,0.044843294165894464,-2.9903198056839505e-05,Oak
576.9449771907578,14.755569475983142,0.11039174078637501,0.013753732416579845,0.8517732049436495,0.0001896974089243894,0.064880371093354,0.07684326171828099,0.07269287109330631,0.12298583984299935,0.17730712890516778,0.12829589843671693,0.08282470703074447,0.07788085937452464,0.07147216796831377,0.12481689453048818,0.15369227521081177,0.06447063140928833,-9.180025230794425e-06,Oak
1679.5452752274718,28.237273384706175,0.05698365041580601,0.009933313301282505,0.608217095889864,9.876802769267012e-05,0.10546874999935626,0.09698486328065804,0.07324218749955297,0.08758544921821541,0.09277343749943376,0.08905029296820648,0.074218749999547,0.09436035156192407,0.10302734374937117,0.18328857421763128,0.15986096543330297,0.04714074145815946,-3.0435486949266434e-05,Oak
497.2523523719129,13.722786789323992,0.11695060605634168,0.014769961220494461,0.8547589865607518,0.00021915792995029102,0.07904052734326757,0.08526611328072957,0.0659790039058473,0.10742187499934434,0.1486206054678429,0.11901855468677357,0.07696533203078024,0.08544921874947846,0.08746337890571616,0.14477539062411635,0.1541408071837573,0.0633907669499018,4.8282537339579136e-06,Oak
1050.7370700680667,20.141481376716186,0.0963488234795628,0.014362894296511459,0.6951307893763559,0.00020686653529098417,0.09515380859316923,0.09271240234318412,0.06707763671834059,0.086669921874471,0.11346435546805746,0.0933227539056804,0.07458496093704477,0.09570312499941587,0.10760498046809322,0.17370605468643976,0.15422150533859053,0.06319418537307127,-1.4551352585586179e-05,Oak
567.3170145051489,15.022123993467195,0.10124679462455446,0.01474765856625008,0.8466642199365836,0.00021818869146940432,0.0817871093745008,0.08984374999945163,0.07159423828081302,0.1057739257806044,0.13140869140544795,0.10333251953061931,0.07604980468703583,0.09252929687443524,0.09344482421817965,0.15423583984280861,0.15675077397197554,0.056630138912681066,-2.6331529843911837e-05,Oak
1073.486894481686,20.092271200169026,0.11662652721663257,0.017083517315654138,0.6127121399161156,0.0002925897272039798,0.09918212890564464,0.09582519531191512,0.0666503906245932,0.0911254882806938,0.09729003906190618,0.09606933593691364,0.07568359374953806,0.09429931640567443,0.10559082031185552,0.17828369140516184,0.15360567855289176,0.0646766827403816,-4.381503253306004e-05,Oak
356.4484863735729,11.003406131813296,0.16856427934552304,0.018151306419840293,0.8724997577879958,0.00033163291210831,0.05175781249968409,0.0784301757807713,0.06542968749960065,0.1137695312493056,0.20062255859252548,0.13812255859290695,0.07781982421827502,0.08227539062449783,0.07501220703079216,0.11676025390553735,0.14899048503080226,0.07469680812171996,5.491384756047323e-05,Oak
838.795792298687,17.632935894779393,0.09478190123855196,0.011857793797361803,0.8488451596487069,0.00014098407060739756,0.08123779296825416,0.08697509765571915,0.06634521484334506,0.09857177734314836,0.1481933593740955,0.11419677734305299,0.08038330078075938,0.08569335937447696,0.08758544921821541,0.1508178710928295,0.1529776634999487,0.06614841074123445,4.314075331495305e-05,Oak
335.7922150610109,12.032990362856316,0.1094699909718712,0.015108218386634972,0.8588730171869825,0.00022859258906012236,0.0997924804681409,0.09936523437439351,0.07019042968707159,0.08691406249946952,0.09515380859316923,0.08697509765571915,0.07281494140580556,0.09710693359315731,0.11059570312432497,0.1810913085926447,0.15843868062500688,0.05172003727817589,-2.3050235433995292e-05,Oak
1024.9009506848595,19.620200076340147,0.11049469137198954,0.012146631925616323,0.7869787672359212,0.00014807571365913196,0.07507324218704178,0.08331298828074149,0.0666503906245932,0.1148681640617989,0.15856933593653216,0.1206665039055135,0.07519531249954105,0.08319091796824224,0.08251953124949633,0.1399536132803958,0.15259057909687035,0.06703650456946615,-8.639048834817768e-05,Oak
831.5670574936336,18.51194253170072,0.10626878059116106,0.015432702858863001,0.7383103126688886,0.00023877282808052678,0.08984374999945163,0.08935546874945462,0.06225585937462002,0.08972167968695238,0.13104248046795017,0.1019897460931275,0.07574462890578769,0.08807373046821243,0.10461425781186148,0.1673583984364785,0.1526624875397812,0.0668725853535767,2.4437132415882505e-06,Oak
1020.0627614419998,20.945596223225078,0.07598072224625596,0.011903851058328654,0.6961716637908043,0.0001419321436883509,0.10369873046811706,0.09826660156190023,0.06585693359334804,0.08270263671824522,0.10522460937435775,0.09454345703067295,0.07434082031204625,0.08813476562446207,0.10540771484310664,0.18182373046764022,0.15665659438289706,0.05689015038261234,-4.034470196698915e-05,Oak
523.621413074886,14.299984088250014,0.10291183476759262,0.013368484099634852,0.8671367196459261,0.00017930518649806015,0.08251953124949633,0.08892822265570723,0.06713867187459022,0.09729003906190618,0.14483642578036598,0.11181640624931752,0.07861328124952018,0.08746337890571616,0.08923339843695535,0.15216064453032127,0.155577067527312,0.059779209040498806,-3.6612251973540187e-06,Oak
207.67932034302595,8.500666985709167,0.17641686578349003,0.017753910421968375,0.9246926907394817,0.00031762465114682886,0.04248046874974072,0.06439208984335698,0.0551147460934136,0.12481689453048818,0.25653076171718425,0.16723632812397926,0.0731201171870537,0.0637817382808607,0.06005859374963343,0.09246826171818562,0.14162398389270284,0.08786594879980714,0.00027922749539437234,Oak
850.6053058787046,20.298410835105788,0.0667776535263194,0.010301507963658689,0.8316448710582796,0.00010626242100923253,0.09765624999940395,0.09936523437439351,0.07342529296830184,0.086669921874471,0.09893798828064612,0.08789062499946355,0.07238769531205817,0.0957641601556655,0.10662841796809919,0.18127441406139358,0.15897283651300317,0.05005412096300129,-3.417288829351999e-05,Oak
1135.8261819259003,21.408985755473182,0.08260720603293535,0.011817302858550024,0.78821413457396,0.00013987325999524766,0.10095214843688383,0.0964355468744114,0.06915283203082792,0.08935546874945462,0.09527587890566848,0.09173583984319009,0.07257080078080706,0.09582519531191512,0.10791015624934136,0.18078613281139655,0.15687320453963988,0.05629010100955885,-4.008801272576176e-05,Oak
1920.0566220980572,25.631168043592147,0.13984854506434038,0.0220960705152955,0.6179851141085018,0.0004904663222258952,0.08605957031197473,0.09252929687443524,0.06347656249961257,0.08636474609322287,0.11950683593677058,0.10699462890559695,0.07873535156201944,0.09185791015568934,0.11285400390556119,0.16162109374901354,0.15090617501504702,0.0707467604638565,-4.041535063964483e-05,Oak
722.4392952184903,17.83621419977332,0.07880014798323831,0.011627661457527576,0.8201988440575277,0.00013550969822075857,0.08697509765571915,0.09338378906193003,0.0686645507808309,0.10083007812438458,0.12518310546798594,0.1008911132806342,0.07269287109330631,0.09417724609317518,0.09606933593691364,0.1611328124990165,0.15660751910427953,0.05702510617284156,-8.006585386412325e-06,Oak
1913.3830154538898,26.505954675976486,0.10268300509971523,0.013909160542828425,0.831646253838856,0.00019396138691024582,0.10327148437436967,0.10174560546812898,0.06103515624962747,0.08081054687450677,0.09240722656193599,0.08990478515570126,0.0722045898433093,0.10028076171813793,0.11401367187430411,0.18432617187387496,0.15566353191391769,0.05955369515035237,-1.9979152418883466e-05,Oak
590.3930971338959,14.8569031083385,0.09804287506317912,0.013076264523355054,0.8606647034582016,0.0001714934131863762,0.08392333984323777,0.09106445312444418,0.0690917968745783,0.10662841796809919,0.12683105468672587,0.10437011718686297,0.07525634765579067,0.08996582031195088,0.09509277343691959,0.157775878905287,0.15558731694142724,0.05975252781872184,1.833130888805761e-05,Oak
582.227270657728,16.123993224550528,0.08688590317528724,0.011970875948304885,0.8356800012919418,0.00014360394135024348,0.07464599609329439,0.08856201171820946,0.07617187499953508,0.10949707031183167,0.13970947265539727,0.11505126953054778,0.08453369140573404,0.08386230468698815,0.08496093749948144,0.14300537109287717,0.15736070470231692,0.05491253399497448,-1.540327192723402e-05,Oak
538.6323181943545,13.367261609523865,0.13290545790659192,0.01574234094075342,0.8247837520896164,0.00024850253727804725,0.07366943359330036,0.08013916015576086,0.06512451171835251,0.11175537109306789,0.15411376953030936,0.12524414062423556,0.07769775390577577,0.08642578124947249,0.08551025390572808,0.14031982421789355,0.1530106992223206,0.06607195847886221,-7.019070098295552e-06,Oak
1550.6661741372716,23.37680865987065,0.10345508087810693,0.013719961753987492,0.5616648746589146,0.000188995154368292,0.0839843749994874,0.08734130859321691,0.06903076171832867,0.10339355468686894,0.13812255859290695,0.11077880859307386,0.077331542968278,0.08001708984326161,0.09350585937442928,0.15649414062404482,0.1531518442929922,0.06574412797822146,-5.012304932017318e-05,Oak
678.4638553808861,16.85363708227537,0.09948581462171523,0.018851864085521326,0.5722842753292804,0.0003559229391783172,0.10345458984311856,0.10314941406187042,0.06512451171835251,0.07873535156201944,0.09362792968692854,0.09136962890569232,0.07012939453082197,0.09741210937440543,0.11096191406182274,0.18603515624886452,0.1553926215790979,0.06025704052494639,-2.493129550582639e-05,Oak
899.081863534901,20.267815711414364,0.07592076127183295,0.011132010749232377,0.8024689835250103,0.00012411685019127533,0.10028076171813793,0.09478759765567146,0.067993164062085,0.09136962890569232,0.1008911132806342,0.09558105468691662,0.07281494140580556,0.09619140624941289,0.10339355468686894,0.17669677734267153,0.15742804403420863,0.05471918060202656,-3.1660274567264566e-05,Oak
325.6123218223262,10.42233673139297,0.16117256642185185,0.022405142192175664,0.7767594260452257,0.0005051165578036252,0.06152343749962449,0.077331542968278,0.06494140624960362,0.11212158203056566,0.1806030273426477,0.13635253906166778,0.08563232421822733,0.07653808593703285,0.0795288085932646,0.12542724609298445,0.15109979604812485,0.0703322785624577,1.424151714690236e-05,Oak
1171.073035540767,22.34799979365893,0.06543603699214542,0.010088616810714615,0.7596467980520563,0.00010207487447344701,0.08929443359320499,0.09930419921814389,0.06933593749957681,0.09637451171816178,0.12036132812426537,0.10034179687438756,0.07006835937457233,0.09234619140568635,0.09722900390565656,0.1653442382802408,0.15499489580657813,0.06127283286905466,-1.7191405000998547e-05,Oak
868.135219606485,18.30190161161798,0.10619925663004265,0.01452822074004372,0.6876784159997769,0.00021171989554414386,0.08703613281196877,0.09143066406194195,0.06536865234335101,0.0975341796869047,0.13873291015540323,0.10632324218685105,0.0753173828120403,0.08471679687448293,0.095520019530667,0.15802001953028552,0.15496389776914044,0.061351187129521256,-2.9317319847803368e-05,Oak
964.304532499765,20.43922898002172,0.0790900430994003,0.012172546928234456,0.7759884888805931,0.0001483934969661771,0.09094238281194493,0.0944213867181737,0.0717773437495619,0.09374999999942779,0.11602783203054182,0.1037597656243667,0.07781982421827502,0.09301757812443226,0.09326171874943077,0.16522216796774156,0.1587454737136986,0.050770585477351735,-2.6799584215195916e-05,Oak
700.5277725438956,17.423970531536437,0.08928483351369645,0.012792678623807167,0.7419891317208975,0.0001638435892877143,0.09564208984316624,0.09582519531191512,0.0690917968745783,0.08813476562446207,0.10455322265561186,0.09411621093692556,0.07397460937454849,0.09283447265568338,0.11114501953057163,0.17468261718643383,0.15813831256167707,0.052631282279624166,-2.3900651711086137e-05,Oak
984.3562484743981,19.049876072411948,0.11120170775688029,0.01661501337528162,0.7109250709943771,0.00027720560981413776,0.08453369140573404,0.08923339843695535,0.07238769531205817,0.09936523437439351,0.12591552734298148,0.10473632812436073,0.07427978515579663,0.09008789062445015,0.10156249999938011,0.15789794921778627,0.15367630014829423,0.06450870132502692,-2.306382381139729e-05,Oak
778.7097307984438,18.662336062955113,0.07923504996850131,0.01152238970217492,0.7973866166671559,0.0001331390044131934,0.08837890624946057,0.09796142578065209,0.06805419921833462,0.09527587890566848,0.12158203124925791,0.10284423828062228,0.07379150390579961,0.09387207031192704,0.09387207031192704,0.16436767578024677,0.15776376889042085,0.05374356705448004,-3.790517494342526e-05,Oak
801.6930626948314,15.604091305840932,0.14944086241142956,0.02299582464684369,0.787406782903607,0.0005305817332385358,0.07904052734326757,0.09063720703069679,0.06848144531208201,0.10229492187437564,0.11694335937428622,0.1060180664056029,0.08026123046826011,0.08984374999945163,0.10565185546810514,0.16082763671776837,0.1536354338817825,0.06460596899554427,-2.3344936783266978e-05,Oak
633.4194568740961,14.375760106989318,0.11696404072179056,0.01709690985247582,0.8608101249169574,0.00029297907189335874,0.08789062499946355,0.09185791015568934,0.06713867187459022,0.10058593749938607,0.12030029296801574,0.10418701171811409,0.07781982421827502,0.08959960937445312,0.09924316406189426,0.16137695312401504,0.15324112963687456,0.06553574567596888,1.1257532965157974e-05,Oak
862.314449007879,20.60232769293841,0.06501129433479926,0.01059364674047552,0.7766409304058368,0.00011245342746472403,0.08837890624946057,0.09460449218692257,0.07440185546829588,0.10125732421813197,0.12652587890547773,0.09985351562439054,0.07690429687453061,0.09100341796819456,0.08831787109321095,0.15875244140528105,0.15801064577536378,0.05301333413392752,-4.6149179541030265e-05,Oak
924.4050690914337,19.58732499496325,0.0877467517712445,0.014759302122437472,0.7426199280779839,0.00021825224438862292,0.10491943359310962,0.09710693359315731,0.06408691406210884,0.080444335937009,0.09765624999940395,0.09381103515567742,0.0733032226558026,0.09747314453065507,0.10784912109309173,0.18334960937388092,0.15691971345907244,0.05616031785902825,-3.0816615406734156e-05,Oak
281.78644347916764,10.599820684017399,0.15802098340380533,0.017910430067149263,0.9365887748042052,0.0003230018480318989,0.029479980468570068,0.06158447265587411,0.06573486328084878,0.15606689453029743,0.24853515624848305,0.1613159179677654,0.08367919921823926,0.06658935546834356,0.0488891601559516,0.07812499999952316,0.1511189562801326,0.07029110061977512,2.715675424368649e-05,Oak
256.533196585939,9.764160852540941,0.14196696788504287,0.016819759277325513,0.9075938836016322,0.0002833652460399703,0.08441162109323479,0.08825683593696132,0.07257080078080706,0.09515380859316923,0.12823486328046732,0.10168457031187936,0.0795288085932646,0.09057617187444716,0.09960937499939203,0.1599731445302736,0.15724999397312897,0.055228771211867735,-1.5578688267264964e-05,Oak
859.9138514332451,19.99859761047808,0.07580644890642059,0.012390659982472164,0.6416662578324782,0.00015372301342027474,0.1060180664056029,0.10675048828059844,0.06439208984335698,0.07812499999952316,0.0880126953119628,0.08715820312446802,0.07482910156204328,0.09826660156190023,0.11010742187432795,0.18634033203011266,0.1597726236001168,0.04743929302164514,-3.61095435751273e-05,Oak
932.75708847909,17.88623376856233,0.11918884428487853,0.015141847509794804,0.7081699510022318,0.00022996821476900463,0.08831787109321095,0.09503173828066996,0.06121826171837635,0.0911254882806938,0.13165283203044645,0.10839843749933839,0.07806396484327353,0.09143066406194195,0.09564208984316624,0.1591186523427788,0.15183042677813152,0.06874081231819855,-9.220689419003937e-06,Oak
616.2384731840898,16.12389525951207,0.10021638496912144,0.01379597632668792,0.8532707305662636,0.00019089328081166554,0.0870971679682184,0.09655761718691065,0.06756591796833761,0.09197998046818859,0.11090087890557311,0.10467529296811111,0.07946777343701496,0.09387207031192704,0.10205078124937712,0.16583251953023784,0.1563047991396936,0.05784969783747674,-1.6565506501842175e-05,Oak
584.1092162458336,14.441483629062354,0.13619376685747092,0.016041863092539084,0.7528995582239075,0.000258763308203531,0.07745361328077725,0.0870971679682184,0.057250976562150564,0.10351562499936819,0.16210937499901057,0.11840820312427729,0.07879638671826907,0.0846557617182333,0.08929443359320499,0.14141845703038686,0.15027773106885994,0.07207205643224375,-2.4913392726828914e-06,Oak
1759.2597943243886,25.472741742360235,0.0839378672398893,0.013596493568410714,0.5540558874375253,0.00018517335478624567,0.1157836914055433,0.0984497070306491,0.061645507812123745,0.07519531249954105,0.08477783203073255,0.09033203124944865,0.07116699218706563,0.10046386718688681,0.11187744140556714,0.19030761718633846,0.15436936648900734,0.06283212923169772,-3.055410565219906e-05,Oak
761.8461560165941,17.09559438259608,0.10828354677013799,0.012703224601088733,0.8425268504833948,0.00016169428932150595,0.0913085937494427,0.09143066406194195,0.06750488281208798,0.0995483398431424,0.10925292968683317,0.10119628906188234,0.0755615234370388,0.09082031249944568,0.10137939453063123,0.1719970703114502,0.15447672979712965,0.06256770512937243,-3.985551109016446e-05,Oak
462.49037920344625,14.626996961026087,0.09675791750128548,0.013733786820442791,0.8106484262353143,0.0001889408158593758,0.09899902343689575,0.09631347656191215,0.06854248046833164,0.08544921874947846,0.10217285156187639,0.0877685546869643,0.07159423828081302,0.0957641601556655,0.11053466796807535,0.1828613281238839,0.1582361953466527,0.052336261392146644,-4.522074511009425e-05,Oak
1601.24676000926,25.36766557908315,0.07835413938611409,0.0120318703196646,0.7350684447659479,0.00014504208908704748,0.08923339843695535,0.09588623046816475,0.07025146484332122,0.10174560546812898,0.11669921874928772,0.09918212890564464,0.0766601562495321,0.08850097656195983,0.09368896484317817,0.16815185546772368,0.15510788406206982,0.06098624497105573,-2.0536643520513903e-05,Oak
454.749358807341,12.46040940910093,0.13964043701582757,0.016945014416716375,0.8317019995192306,0.0002880303375222587,0.07434082031204625,0.0817871093745008,0.0624389648433689,0.10815429687433988,0.1593017578115277,0.11877441406177505,0.0777587890620254,0.0822143554682482,0.09002685546820051,0.14520263671786374,0.15356432332131317,0.06477481282521534,-4.1563341081905045e-06,Oak
389.81780633875513,12.64479111770772,0.1167954789711137,0.016457008072387237,0.8063702153132856,0.0002716219032681623,0.08782958984321393,0.09393310546817667,0.06604003906209692,0.09472656249942184,0.12060546874926388,0.10760498046809322,0.0795288085932646,0.0884399414057102,0.09936523437439351,0.16192626953026168,0.15703996789355754,0.05582316954588816,-2.799862040250896e-05,Oak
609.9409900499916,16.493348912480144,0.09052344579443908,0.014539916773672857,0.6967401095132792,0.00021186413524702062,0.09027099609319902,0.09802246093690171,0.07122802734331525,0.09747314453065507,0.1124267578118138,0.09063720703069679,0.07250976562455744,0.09484863281192109,0.10253906249937415,0.17004394531146214,0.1559201926218464,0.058878445179606706,-1.7711439818044503e-05,Oak
580.6515916352686,15.935984993065142,0.09959995606213398,0.013008482505461983,0.8148133205442752,0.00016949609148516053,0.10205078124937712,0.09899902343689575,0.057678222655897955,0.08251953124949633,0.10455322265561186,0.09722900390565656,0.07464599609329439,0.09313964843693151,0.11108398437432199,0.17810058593641295,0.15711219107904467,0.055619575587963196,-4.320773199788683e-05,Oak
1184.1151147342803,22.202148861331562,0.07462095492164897,0.010709138588507847,0.729442639976783,0.0001148979859492812,0.0826416015619956,0.08929443359320499,0.07397460937454849,0.11059570312432497,0.13513183593667522,0.11169433593681827,0.07781982421827502,0.08514404296823032,0.08831787109321095,0.14538574218661263,0.1559939259186105,0.05868281563227946,-2.715684703789255e-05,Oak
574.6658704333474,13.263323729773447,0.1511042935636994,0.017086312089669473,0.7986226495902983,0.00029408674105999385,0.06097412109337784,0.06994628906207308,0.05548095703091137,0.1137695312493056,0.2121582031237051,0.14501953124911487,0.07586669921828694,0.0731201171870537,0.07482910156204328,0.11883544921802468,0.1471484651491499,0.07826306266366174,4.8422467050300634e-05,Oak
1447.197750848815,25.88186457623256,0.06024943669723084,0.0099271862197613,0.6514457543266837,9.864500614989929e-05,0.10009765624938904,0.09680175781190917,0.06903076171832867,0.09368896484317817,0.11096191406182274,0.09149169921819157,0.07171630859331228,0.09393310546817667,0.10070800781188533,0.1715698242177028,0.15705555186476505,0.05577930980841717,-3.9745425168856515e-05,Oak
587.3081311709901,15.25355967899524,0.09926402608348509,0.013263670319873687,0.8128157996430341,0.00017636222208663392,0.07794189453077428,0.08520507812447994,0.07336425781205222,0.11199951171806641,0.1424560546866305,0.11767578124928176,0.07922363281201646,0.08551025390572808,0.08203124999949932,0.14459228515536748,0.15514543812579445,0.06089064626594883,-7.945378016996084e-06,Oak
848.2164570853315,19.220113397259404,0.08868732914027887,0.012078127951920814,0.7423302594334745,0.00014615925995626472,0.09307861328068189,0.09405517578067593,0.06744384765583836,0.09820556640565059,0.12762451171797104,0.09588623046816475,0.07635498046828396,0.08966064453070276,0.09411621093692556,0.1635742187490016,0.15594389828705016,0.05881563024588683,-5.1319674960473886e-05,Oak
1442.2314305998877,25.3139907881436,0.06861827599986275,0.011545701142444721,0.7971660834047827,0.00013351776676921506,0.09027099609319902,0.09277343749943376,0.07470703124954402,0.09509277343691959,0.11322021484305896,0.08972167968695238,0.07061767578081898,0.09472656249942184,0.10858154296808727,0.17028808593646064,0.1562136491644375,0.05809538353993562,-9.863085102480093e-06,Oak
485.6632677601645,12.940423087878287,0.15385386317078545,0.019411597434270598,0.8400220029494525,0.00037862846095182266,0.05920410156213864,0.07073974609331823,0.06524658203085176,0.12670898437422662,0.1888427734363474,0.13677978515541517,0.08093261718700602,0.07305908203080408,0.07672119140578172,0.1217651367180068,0.1476708330916742,0.0772729113424983,4.9406714624387865e-05,Oak
560.5119663872365,15.550192369916422,0.09055304685591237,0.013166602734819375,0.8595684365999914,0.0001737794097319205,0.08428955078073554,0.08966064453070276,0.06970214843707456,0.1026611328118734,0.12854003906171546,0.10717773437434583,0.07702636718702986,0.08734130859321691,0.09149169921819157,0.16210937499901057,0.15713801649291892,0.05554657097256023,-2.274044060896369e-05,Oak
1370.778914702478,24.99716119354327,0.07154540844870352,0.011046807181826029,0.6706633690291695,0.00012230871568124664,0.09899902343689575,0.10491943359310962,0.05633544921840615,0.09008789062445015,0.12255859374925196,0.09515380859316923,0.07055664062456936,0.08782958984321393,0.09942626953064315,0.17413330078018716,0.155622621839789,0.05966051747846571,-3.3479506007819964e-05,Oak
1120.301568239967,21.492400504334334,0.09220574785520272,0.012451268564579024,0.6279641536624478,0.00015548316929723342,0.09790039062440246,0.09368896484317817,0.0644531249996066,0.08618164062447399,0.12640380859297848,0.09973144531189128,0.07409667968704775,0.08642578124947249,0.1006469726556357,0.17047119140520953,0.1564567871073198,0.05743737060790091,-6.453856945065721e-05,Oak
1365.7755875240719,20.249807581649947,0.1508551949614072,0.022256154924892687,0.8026161925134855,0.0004979652051148495,0.08081054687450677,0.09185791015568934,0.06195068359337188,0.09313964843693151,0.11529541015554629,0.11035156249932647,0.07458496093704477,0.09570312499941587,0.11456298828055075,0.1617431640615128,0.15330760381720188,0.06538009166178874,-4.5924742486966735e-05,Oak
580.5515074507148,15.67598214493407,0.09962066757523744,0.012947381156496598,0.8172869798170603,0.00016797172811316646,0.08856201171820946,0.09570312499941587,0.06811523437458425,0.0995483398431424,0.11480712890554927,0.10241699218687489,0.07745361328077725,0.09307861328068189,0.09521484374941885,0.1651000976552423,0.1571745182419338,0.055443201473850234,-4.590258492625347e-05,Oak
992.260800131149,19.847058287870077,0.10825418151440841,0.013175558729570432,0.8189215273353396,0.00017401435848448036,0.10302734374937117,0.09936523437439351,0.05975341796838529,0.0793457031245157,0.1051025390618585,0.09246826171818562,0.07501220703079216,0.09271240234318412,0.11059570312432497,0.1826171874988854,0.1554730896207737,0.06004911471354276,-4.2817366013373323e-05,Oak
790.9310758426736,18.39141150548025,0.08615393298225212,0.012223182754001565,0.7626967528699922,0.00014991318849515628,0.09411621093692556,0.09625244140566251,0.06719970703083984,0.09277343749943376,0.11181640624931752,0.10314941406187042,0.077331542968278,0.09680175781190917,0.095520019530667,0.16503906249899267,0.15629529909258588,0.05787535965812544,-9.275741950100362e-06,Oak
1514.790402647513,21.237816370168257,0.15302176854971491,0.025093277342356217,0.8349030863737068,0.0006320189760012741,0.0870971679682184,0.09106445312444418,0.0610961914058771,0.08868408203070871,0.1071166992180962,0.10833740234308875,0.07232666015580855,0.09387207031192704,0.11730957031178399,0.1730957031239435,0.15051100777393417,0.07158361762634122,-8.624650713274477e-06,Oak
701.4550709805418,15.694361669975207,0.11402363627688836,0.015063514308929682,0.8242205892016815,0.00022744213337349184,0.0822143554682482,0.08868408203070871,0.07037353515582047,0.10168457031187936,0.11706542968678549,0.10528564453060739,0.0793457031245157,0.09063720703069679,0.09924316406189426,0.16546630859274006,0.1552276053166954,0.06068087278256178,-2.4380172131543306e-05,Oak
342.9030751577292,11.398852610205699,0.11881938578549307,0.016396543811618307,0.8507853787573947,0.0002694804292306865,0.08081054687450677,0.08837890624946057,0.0717773437495619,0.11102294921807236,0.126647949217977,0.10571289062435478,0.0808715820307564,0.08648681640572212,0.09509277343691959,0.15319824218656494,0.1562392424343416,0.05802651891594071,-5.99473535467337e-06,Oak
609.5213973084394,15.34911858104997,0.10000492233438896,0.015126213001961004,0.8261791053546275,0.00022939384991697056,0.08404541015573702,0.09362792968692854,0.06683349609334208,0.09893798828064612,0.12829589843671693,0.11224365234306491,0.08074951171825714,0.08770751953071468,0.09191894531193896,0.15563964843655004,0.1560036291358497,0.05865701552681739,-3.494796782695964e-05,Oak
971.6403318316509,19.76201918419865,0.1020281716237548,0.013956225311583687,0.8223491719168534,0.00019521248704433585,0.08935546874945462,0.09606933593691364,0.06805419921833462,0.09484863281192109,0.11480712890554927,0.10504150390560887,0.0791015624995172,0.09039306640569827,0.10034179687438756,0.1619873046865113,0.15568577245752116,0.059495529482196025,-3.0942941737076744e-05,Oak
964.3373303232199,20.146966450185335,0.09168330723789048,0.012902987080405605,0.6682811365572701,0.00016678911918173816,0.09826660156190023,0.09539794921816773,0.06640624999959469,0.08551025390572808,0.11407470703055374,0.09637451171816178,0.07299804687455445,0.08972167968695238,0.1040039062493652,0.17724609374891817,0.15586069596024973,0.059035762288470066,-4.937314516514321e-05,Oak
939.0247603308457,17.960713960491503,0.12400410461140177,0.01351468098695,0.743109219833979,0.00018342841003287692,0.06964111328082494,0.08343505859324075,0.06469726562460512,0.11102294921807236,0.16638183593648448,0.1293334960929606,0.08374023437448888,0.07568359374953806,0.08068847656200752,0.13537597656167372,0.15206211673243028,0.06822675742527284,-5.071992114095626e-05,Oak
461.9041773552606,13.192631479013741,0.11642297881376609,0.01506693419422551,0.848642924526221,0.00022761361067857302,0.08026123046826011,0.0939941406244263,0.06927490234332717,0.09759521484315432,0.12817382812421768,0.11450195312430113,0.07415771484329738,0.0915527343744412,0.0946655273431722,0.15582275390529893,0.1545000022647198,0.0625102157575954,2.4584551890613767e-06,Oak
805.7932020981696,17.362543182118376,0.1048719242450129,0.013038179659042262,0.7762894340028097,0.00017037594499484657,0.09124755859319307,0.09246826171818562,0.06829833984333314,0.09655761718691065,0.12451171874924004,0.09594726562441439,0.07470703124954402,0.09271240234318412,0.09948730468689278,0.16406249999899863,0.15678489803378456,0.05653559518328138,-2.281550860820374e-05,Oak
1378.906476930369,24.495154545000332,0.09267022219406067,0.012556112521500878,0.6544796834898414,0.00015826983620534634,0.09704589843690767,0.09484863281192109,0.05706787109340168,0.08392333984323777,0.12683105468672587,0.1072998046868451,0.06982421874957383,0.08795166015571318,0.10351562499936819,0.17169189453020206,0.1553678637058851,0.06032084798478471,-5.916333250725213e-05,Oak
641.1087350183158,15.218833918137971,0.10447149832886732,0.012810097374434306,0.8451136549935134,0.00016447147872223396,0.08013916015576086,0.08636474609322287,0.06604003906209692,0.10839843749933839,0.14434814453036895,0.11322021484305896,0.07440185546829588,0.0846557617182333,0.09234619140568635,0.15008544921783395,0.15515843406233917,0.06085752306146476,-5.398765797674495e-06,Oak
343.5901651334814,10.26775383238326,0.1680008361163732,0.01681575712722563,0.8823586036894135,0.0002839268609917127,0.052246093749681116,0.07031249999957084,0.06414794921835847,0.12017822265551649,0.201354980467521,0.14807128906159625,0.08416748046823627,0.0755615234370388,0.07324218749955297,0.11071777343682422,0.15148028515863954,0.06950899928693349,-5.870435580340487e-06,Oak
1201.0924384310524,23.756919431809337,0.06633808942817694,0.01059797568683672,0.7631600449573004,0.00011273298441556763,0.09283447265568338,0.09875488281189725,0.06713867187459022,0.09625244140566251,0.11791992187428027,0.09802246093690171,0.07061767578081898,0.09326171874943077,0.09374999999942779,0.17144775390520356,0.15565923436600038,0.05956492701740393,-3.67198793250088e-05,Oak
1193.3982133551112,21.355561386905656,0.08989830604574721,0.012572485896608575,0.6957199459646327,0.00015875298009608774,0.07690429687453061,0.08477783203073255,0.06494140624960362,0.11395263671805449,0.1571044921865411,0.11834716796802766,0.07458496093704477,0.07916259765576683,0.08270263671824522,0.14752197265534958,0.15510903784210023,0.060983310451980945,-4.338596837025694e-05,Oak
538.9710015006508,15.012614240073725,0.09811526142372026,0.013965951871656756,0.7879915822815143,0.00019558589680714693,0.08648681640572212,0.09405517578067593,0.07092285156206712,0.10070800781188533,0.11956787109302021,0.09588623046816475,0.07550048828078917,0.0922241210931871,0.10070800781188533,0.16394042968649938,0.15608124196236015,0.058450181192507514,-1.389448151680391e-06,Oak
882.883375102859,17.00299659193395,0.11334431666617976,0.017531855539820652,0.8635607670102886,0.0003079112672543721,0.07708740234327949,0.08105468749950528,0.06878662109333016,0.11340332031180783,0.13787841796790845,0.1126708984368123,0.07318115234330333,0.0870971679682184,0.09600830078066401,0.1528320312490672,0.15127874914575898,0.06994653551393519,3.0832271083793805e-05,Oak
1631.163045916167,26.313517552820013,0.08408676097386443,0.012276009296196367,0.6075614728706036,0.00015125164287570336,0.09228515624943673,0.09637451171816178,0.06402587890585922,0.08538818359322883,0.12322998046799785,0.10235595703062526,0.06683349609334208,0.09600830078066401,0.10205078124937712,0.17144775390520356,0.15428224609850352,0.06304574777842266,-8.525777420101872e-05,Oak
1504.4318659812025,22.576931981993276,0.11917076462937191,0.01920672528099113,0.7456254695400716,0.0003701916865255347,0.07690429687453061,0.08685302734321988,0.06024169921838231,0.10919189453058355,0.14349365234287417,0.11035156249932647,0.07458496093704477,0.08679199218697026,0.09832763671814986,0.15325927734281458,0.1526493230064182,0.06690263043681557,-1.4172410746513266e-05,Oak
1930.118035884825,27.581537428704138,0.0720197630764897,0.009451201594949265,0.7410012556795212,8.948980762072848e-05,0.08740234374946654,0.08996582031195088,0.07049560546831972,0.10247802734312451,0.1312866210929487,0.1030883789056208,0.07214355468705967,0.0859985351557251,0.09368896484317817,0.16345214843650235,0.15586145993547237,0.05903374527193734,-3.766574848993723e-05,Oak
575.7105911712247,12.9542538381959,0.1669579279238536,0.01776428209049218,0.8721508241294238,0.0003160732759358166,0.08898925781195685,0.09277343749943376,0.05786132812464684,0.08898925781195685,0.10986328124932944,0.10003662109313942,0.0786743164057698,0.09484863281192109,0.11181640624931752,0.17614746093642486,0.14893781332622125,0.07480177494504417,4.2064477640836275e-05,Oak
1266.7682138686366,23.273189136225124,0.09471441604368366,0.014791772737748878,0.5568737369448068,0.00021933379869813264,0.10644531249935031,0.10430908203061334,0.060668945312129706,0.08050537109325863,0.09381103515567742,0.09063720703069679,0.07318115234330333,0.09741210937440543,0.10803222656184062,0.18499755859262085,0.15527893049818436,0.060549413849319916,-5.301276192394044e-05,Oak
1158.0673960723886,23.280376912318555,0.06201774303072387,0.010307762425136991,0.7371556237539956,0.00010639012243073552,0.09985351562439054,0.09710693359315731,0.067993164062085,0.0888671874994576,0.1068725585930977,0.09588623046816475,0.07226562499955892,0.10144042968688086,0.09808349609315134,0.17163085937395245,0.16012819650934987,0.04622486838496653,-4.24579771795304e-05,Oak
823.2463938209733,17.097099459824868,0.1066384150960424,0.013344707375635076,0.7820692492973673,0.0001786586944187289,0.086669921874471,0.08636474609322287,0.06671142578084283,0.1030883789056208,0.12408447265549265,0.10937499999933242,0.0777587890620254,0.08728027343696727,0.09521484374941885,0.16345214843650235,0.15411125701962655,0.06346257348723092,-1.1911874470399662e-06,Oak
1318.733952987616,24.28295149168738,0.09268050015196605,0.01262518364443066,0.7205776517244384,0.00015991878612404015,0.0995483398431424,0.0988769531243965,0.06732177734333909,0.08612060546822435,0.09741210937440543,0.09405517578067593,0.07122802734331525,0.0988769531243965,0.10766601562434286,0.1788940429676581,0.15644029090968017,0.057482285570054636,-7.56905127291292e-05,Oak
876.9093305101676,17.917853589615408,0.1342447505491362,0.019145069458505318,0.6790638058534576,0.00036753876191928417,0.08929443359320499,0.0902099609369494,0.060363769530881566,0.08636474609322287,0.12274169921800084,0.10742187499934434,0.08343505859324075,0.08581542968697622,0.10845947265558802,0.16589355468648745,0.15298784349511757,0.06612486307441119,-4.379115356621131e-05,Oak
580.3813488369663,16.068924157380835,0.08826761692118887,0.011730957316675263,0.8524284496989831,0.00013788754368824818,0.07720947265577875,0.08740234374946654,0.07879638671826907,0.11077880859307386,0.13702392578041367,0.11248779296806342,0.08093261718700602,0.0877685546869643,0.08392333984323777,0.14367675781162306,0.15852418853609043,0.05145735538601951,-4.219081408256929e-05,Oak
1686.4207223067278,25.204272123394855,0.08550990856212082,0.012734381821315966,0.8013280048991266,0.00016278003922459895,0.07031249999957084,0.09320068359318115,0.07385253906204924,0.11273193359306194,0.14514160156161413,0.11462402343680038,0.07208251953081005,0.08447265624948441,0.08984374999945163,0.14373779296787267,0.1515705519237912,0.06931194386814091,6.20354134263398e-05,Oak
440.00504308042366,13.701220191503541,0.10404280128377996,0.015746462030292785,0.785354001079433,0.00024906715548409083,0.07879638671826907,0.08837890624946057,0.07073974609331823,0.10412597656186447,0.13726806640541217,0.11096191406182274,0.08148193359325268,0.08746337890571616,0.08770751953071468,0.1530761718740657,0.15608749778690229,0.058433473357988805,-1.478582551812442e-05,Oak
811.1654014363176,19.219035176352545,0.07452397884759529,0.011575474598903634,0.7837479624258962,0.00013434222058340958,0.08459472656198368,0.09124755859319307,0.07482910156204328,0.10522460937435775,0.1293334960929606,0.10772705078059248,0.07855224609327055,0.0881958007807117,0.08691406249946952,0.15338134765531383,0.15614064007924655,0.05829132259347818,-2.2029209078121568e-05,Oak
518.2786159635635,13.375001453129803,0.14140058012478332,0.017933424946310842,0.8671465763684275,0.00032284367515161936,0.08026123046826011,0.08630371093697324,0.0690917968745783,0.09893798828064612,0.12982177734295763,0.11224365234306491,0.07830810546827204,0.08953857421820349,0.09899902343689575,0.15649414062404482,0.15280359773784605,0.06654951759380512,1.6843181028955784e-05,Oak
1484.698039900256,21.710296065127544,0.11527944721050673,0.015259469939284903,0.8086075268917791,0.00023346858179264644,0.09692382812440842,0.1006469726556357,0.06384277343711033,0.08697509765571915,0.09655761718691065,0.09405517578067593,0.0717773437495619,0.09741210937440543,0.11230468749931455,0.17950439453015438,0.15295323934163854,0.0662048665035554,-2.747352234366445e-05,Oak
954.0999395984516,21.302893129226668,0.07333341575473026,0.011391602814755661,0.7145678121399607,0.00012994220946520166,0.09814453124940097,0.09759521484315432,0.06158447265587411,0.08374023437448888,0.11968994140551946,0.10162353515562973,0.0689086914058294,0.09045410156194791,0.10253906249937415,0.17572021484267747,0.1539157265270397,0.06393533374715132,-4.3891882756273375e-07,Oak
1040.9166179466097,20.792475534171388,0.083520495894415,0.010969199113369289,0.7913429960299215,0.00012061515583392607,0.09228515624943673,0.09100341796819456,0.06732177734333909,0.09497070312442034,0.11706542968678549,0.10870361328058652,0.07397460937454849,0.09216308593693748,0.0953369140619181,0.16717529296772962,0.15796597194656586,0.05314630261166871,-4.152585675530108e-05,Oak
625.3051956104762,15.620861007349115,0.18398305970083606,0.06676470439387176,0.9263057581520326,0.00446137924619763,0.09240722656193599,0.09075927734319604,0.05285644531217739,0.07073974609331823,0.08691406249946952,0.10070800781188533,0.06842041015583239,0.0946655273431722,0.16607666015523634,0.176452636717673,0.15221873307521352,0.06787661655450289,-7.433936053406537e-05,Oak
1150.5376777903334,23.818277031088336,0.05509261255540166,0.010292809728454463,0.6734713866350823,0.0001060445403982326,0.09374999999942779,0.0988769531243965,0.06835937499958276,0.09320068359318115,0.10748291015559397,0.10058593749938607,0.0777587890620254,0.09106445312444418,0.09606933593691364,0.17285156249894498,0.1574337235585256,0.054702837774617784,-1.1304180466108766e-05,Oak
578.907060966475,14.75097056834739,0.10399370062229965,0.01594464425968551,0.8318381373023109,0.0002549979649871597,0.08111572265575491,0.0884399414057102,0.06518554687460214,0.10705566406184658,0.1506958007803302,0.11102294921807236,0.06958007812457531,0.08349609374949038,0.08905029296820648,0.15435791015530786,0.15273583728781134,0.06670488573941434,3.272188053864522e-05,Oak
643.1358553499113,17.232390511657954,0.08247224569734471,0.011354779964740064,0.8378813375394479,0.00012935521777110217,0.07836914062452167,0.0926513671869345,0.07196044921831078,0.10693359374934733,0.14031982421789355,0.11035156249932647,0.08270263671824522,0.0881958007807117,0.08441162109323479,0.14410400390537045,0.1578442969142608,0.0535065949751592,-2.4453323037355164e-05,Oak
564.9573715241977,15.50686675592307,0.1024480544396489,0.013626372069198402,0.8454074578879328,0.000186097798047314,0.08343505859324075,0.08923339843695535,0.07250976562455744,0.09729003906190618,0.12841796874921618,0.11572265624929368,0.07885742187451869,0.0870971679682184,0.09240722656193599,0.15502929687405376,0.1565710533767695,0.05712515224157773,-2.6292700596282965e-05,Oak
557.0101998680707,15.073636651179724,0.09856214232658339,0.013345054670233239,0.8589623145690176,0.0001784862278380384,0.08551025390572808,0.08990478515570126,0.0733032226558026,0.1029052734368719,0.1268920898429755,0.11035156249932647,0.07879638671826907,0.08728027343696727,0.08837890624946057,0.1566772460927937,0.15592458257278077,0.05886681852738099,-1.3295937913365958e-05,Oak
1298.2654652771535,21.15552985403043,0.11927974297376231,0.01587799003664848,0.5593157192911034,0.00025307086293474074,0.07318115234330333,0.07922363281201646,0.06646728515584431,0.12432861328049115,0.16693115234273112,0.11547851562429517,0.07525634765579067,0.07995605468701199,0.08123779296825416,0.1379394531241581,0.15344319248846738,0.06506123617714085,-3.638832350233017e-05,Oak
918.7602381337922,16.65388418667499,0.125236197484815,0.016011239766443364,0.7983904782455082,0.00025760612279179823,0.08245849609324671,0.09063720703069679,0.06329345703086368,0.09838867187439948,0.13391113281168265,0.11682128906178697,0.0797729492182631,0.08923339843695535,0.09094238281194493,0.15454101562405675,0.1504249715091368,0.07176423705372832,4.368238328592822e-05,Oak
817.8360749417452,17.70528834417153,0.10577438376201495,0.013217084943552424,0.7879423575082233,0.00017527841369409245,0.06793212890583537,0.07995605468701199,0.06372070312461107,0.12005615234301723,0.18658447265511116,0.12139892578050904,0.07403564453079813,0.07928466796826608,0.07446289062454552,0.13256835937419087,0.15145282299281093,0.06956881615529563,-2.1096059765801414e-05,Oak
597.5621155266311,14.64753280678573,0.11916856634291345,0.014884979319080373,0.7810182877710895,0.0002224029300570758,0.06732177734333909,0.07995605468701199,0.06359863281211182,0.11944580078052096,0.17919921874890624,0.13006591796795614,0.0786743164057698,0.07818603515577278,0.07568359374953806,0.12786865234296954,0.15393398155566856,0.06389136949787165,-2.995997572131753e-05,Oak
1687.8773114424816,22.51763176964333,0.12401482547060756,0.015774765423892844,0.8193027233023517,0.00024961275911120854,0.0784301757807713,0.08209228515574894,0.06524658203085176,0.10650634765559994,0.13513183593667522,0.11785888671803064,0.07440185546829588,0.08856201171820946,0.10040283203063718,0.15136718749907613,0.151161349165436,0.07019988812088107,-2.7307515154198116e-05,Oak
877.6896779966005,19.958253330570315,0.08986617526284098,0.013563756317445937,0.5763283785232575,0.00018425305682209865,0.1088867187493354,0.10205078124937712,0.06072998046837933,0.07812499999952316,0.09472656249942184,0.08679199218697026,0.06903076171832867,0.0953369140619181,0.11505126953054778,0.18927001953009479,0.15605976535661498,0.05850749875939893,-6.469311824671132e-05,Oak
865.9363527556034,19.895659361633044,0.07488129941028365,0.01165624755637681,0.7290871876102835,0.00013614803478884867,0.09313964843693151,0.09490966796817071,0.0722045898433093,0.08996582031195088,0.11273193359306194,0.10028076171813793,0.07226562499955892,0.09368896484317817,0.0995483398431424,0.17126464843645467,0.15850667913719843,0.051511265207370045,-2.6587541845310094e-05,Oak
1574.0791427952922,27.442889288127382,0.06902170309251407,0.0100200309877145,0.6916273594740299,0.00010058096748586794,0.10406494140561483,0.10015869140563867,0.06030273437463194,0.07763671874952614,0.10638427734310067,0.09588623046816475,0.06939697265582644,0.0997924804681409,0.10632324218685105,0.18005371093640102,0.15773552987172587,0.05382639120750777,-5.984290089661815e-05,Oak
560.75724771766,16.345935988747957,0.08032219068457522,0.012599061558235274,0.7913174453416296,0.0001590274993725691,0.09948730468689278,0.10156249999938011,0.06835937499958276,0.08380126953073852,0.10369873046811706,0.09161376953069084,0.07141113281206414,0.09545898437441735,0.10388183593686595,0.18072509765514694,0.1581676913865583,0.05254292698116016,-3.889643584081632e-05,Oak
1310.6310044457787,21.745586002893454,0.08871430796877304,0.014439149412964838,0.5004199545584429,0.00020900288452206073,0.09204101562443823,0.09368896484317817,0.07238769531205817,0.09808349609315134,0.11181640624931752,0.09857177734314836,0.07336425781205222,0.08947753906195387,0.10150146484313048,0.16906738281146808,0.1570868297710011,0.05569116345264328,-3.619461266715422e-05,Oak
1061.3499007273667,18.335818464609407,0.11663821104167502,0.017012068698535478,0.840396464666322,0.0002902526482070661,0.07061767578081898,0.08984374999945163,0.07080078124956786,0.11523437499929666,0.13922119140540026,0.10845947265558802,0.07763671874952614,0.08953857421820349,0.09246826171818562,0.1461791992178578,0.15001918425720578,0.07260869182318944,3.712180945366356e-05,Oak
549.3532431635433,14.766427974262793,0.09555541024397077,0.01263517989909126,0.8733611906307055,0.00015987929663195067,0.0881958007807117,0.09143066406194195,0.07147216796831377,0.09655761718691065,0.11517333984304703,0.10748291015559397,0.08032226562450975,0.09075927734319604,0.09704589843690767,0.1615600585927639,0.15806164968184896,0.05286106955098934,-3.059232493945033e-05,Oak
667.8180233392026,15.075383916393346,0.10961620482538074,0.016083863987636088,0.7183430258711587,0.0002592481187472971,0.09326171874943077,0.08935546874945462,0.0697631835933242,0.0975341796869047,0.11114501953057163,0.09881591796814687,0.0717773437495619,0.09045410156194791,0.1030883789056208,0.17480468749893308,0.1561159331716978,0.05835746039533271,-1.6534078575510292e-06,Oak
908.994817056177,18.829041802617514,0.10254934158188009,0.013499744813367342,0.7666812691175435,0.00018264850238937076,0.09600830078066401,0.09167480468694046,0.06262207031211778,0.08984374999945163,0.12579345703048223,0.10449218749936223,0.07183837890581153,0.08673095703072063,0.10229492187437564,0.16870117187397032,0.1548060061764854,0.06174850788236245,-4.8817499420711895e-05,Oak
812.275489801068,17.828285812823474,0.11386868036148855,0.013470735050914959,0.7731533004736171,0.00018222347315902148,0.0764160156245336,0.08239746093699708,0.06390380859335996,0.10241699218687489,0.1668701171864815,0.11358642578055672,0.0762329101557847,0.08074951171825714,0.09082031249944568,0.1466064453116052,0.15315333319067587,0.06574065946208534,-3.833876286214816e-05,Oak
906.0501807449864,18.736959024701115,0.08302463871855087,0.011100094999725732,0.8122529329117925,0.00012349950440713843,0.09454345703067295,0.09301757812443226,0.06939697265582644,0.0944213867181737,0.11114501953057163,0.09991455078064017,0.06994628906207308,0.09393310546817667,0.10296630859312154,0.17071533203020803,0.15667935260914143,0.056827442666736304,-1.6564373680589177e-05,Oak
935.2235041501899,19.44048617784844,0.0913090418678287,0.011919645931100238,0.8531457644042543,0.00014244508095646185,0.08245849609324671,0.08972167968695238,0.0686645507808309,0.10791015624934136,0.13226318359294273,0.11120605468682125,0.07208251953081005,0.08740234374946654,0.09027099609319902,0.15802001953028552,0.15406024243974864,0.0635863151405052,4.230163287418498e-06,Oak
1164.822695508815,21.60924361302104,0.10414181081099767,0.012268731561334399,0.7748322932490204,0.0001511489014819662,0.08795166015571318,0.09362792968692854,0.06127929687462598,0.0926513671869345,0.13598632812417,0.10388183593686595,0.0704345703120701,0.0913085937494427,0.0984497070306491,0.1644287109364964,0.1522587985417637,0.06778669515695677,-1.1024980603571572e-05,Oak
830.4106768331108,17.62999379514436,0.10120114760600966,0.015453980031034719,0.7658105551863326,0.00023927917800860036,0.08758544921821541,0.0922241210931871,0.06896972656207905,0.10229492187437564,0.1206665039055135,0.10296630859312154,0.07653808593703285,0.09350585937442928,0.09307861328068189,0.16217041015526018,0.15548714442395223,0.06001271276119821,-3.745196050050739e-05,Oak
941.9298515825044,19.548418100745327,0.10476111655294909,0.013827845582016485,0.7265737786669106,0.00019188147735746248,0.09240722656193599,0.09210205078068785,0.06115722656212672,0.09387207031192704,0.12670898437422662,0.1062011718743518,0.07617187499953508,0.08624267578072362,0.10058593749938607,0.16455078124899566,0.15615928346346503,0.058241359551618126,-6.294835491086473e-05,Oak
625.1597901828968,14.440599642918663,0.11368068825500448,0.013113234467134841,0.8831891264042955,0.00017235065116808044,0.08239746093699708,0.08868408203070871,0.06677246093709245,0.10131835937438159,0.13293457031168862,0.11315917968680933,0.08160400390575193,0.08654785156197176,0.09301757812443226,0.15356445312406272,0.1533670207619037,0.06524059101818061,-1.977964090448475e-05,Oak
1066.830598587055,21.402157628535306,0.07621597470999132,0.012146933983381167,0.6829694314725849,0.00014789576809418097,0.0946655273431722,0.10137939453063123,0.0686645507808309,0.0913085937494427,0.1051025390618585,0.09918212890564464,0.07739257812452763,0.09680175781190917,0.09509277343691959,0.1704101562489599,0.15870608490810711,0.05089357904019185,-3.7724209800914285e-05,Oak
1522.046640077778,24.447093308251063,0.08314441837951482,0.011764770612260802,0.6728298490362596,0.00013856043498426977,0.11199951171806641,0.10015869140563867,0.057983398437146096,0.0717773437495619,0.08807373046821243,0.08813476562446207,0.0722045898433093,0.10522460937435775,0.11566162109304405,0.18878173828009776,0.15590978139796383,0.05890600850972627,-3.7503121052838506e-05,Oak
857.252278746827,19.318005175074532,0.07869243530666982,0.010974548589821491,0.8209228512290089,0.00012063017832297275,0.0846557617182333,0.09167480468694046,0.07092285156206712,0.10314941406187042,0.12097167968676165,0.11169433593681827,0.07958984374951422,0.08789062499946355,0.09106445312444418,0.15838623046778327,0.15746000264818202,0.05462714838079633,-2.1119934122091906e-05,Oak
482.0656276156485,13.497214838180096,0.10580592359050839,0.015920528227642197,0.769559549064227,0.0002539114503693302,0.09881591796814687,0.09301757812443226,0.0689086914058294,0.09210205078068785,0.10925292968683317,0.09320068359318115,0.07519531249954105,0.09411621093692556,0.1029052734368719,0.17248535156144723,0.15571769834722415,0.05941191964121967,-1.760963308633792e-05,Oak
877.1769134788741,18.281388289339752,0.11010631417711626,0.015995750002740394,0.6321249269896488,0.00025654306666257615,0.09613037109316326,0.09356689453067892,0.06695556640584133,0.09228515624943673,0.10943603515558205,0.09588623046816475,0.07562255859328844,0.09313964843693151,0.1019897460931275,0.17498779296768194,0.15696564620126838,0.056031809597756534,-2.94097563373609e-05,Oak
709.6017328793107,17.19310338230192,0.0932520875228898,0.012671049378671185,0.7764464976622643,0.0001608224714615408,0.09045410156194791,0.09057617187444716,0.07098388671831675,0.10015869140563867,0.11480712890554927,0.10363769531186744,0.07489013671829291,0.08660888671822138,0.09948730468689278,0.16839599609272218,0.15566099272315567,0.059560331751829766,-1.3700152818503978e-05,Oak
1264.5804879072034,23.2584217238771,0.10910266602488533,0.014219647216304619,0.6206330674894927,0.00020264519844877808,0.08789062499946355,0.09503173828066996,0.06640624999959469,0.0997924804681409,0.12384033203049413,0.10394287109311558,0.07373046874954998,0.09216308593693748,0.09521484374941885,0.1619873046865113,0.15506555241783226,0.06109379860157867,-7.736788870134582e-05,Oak
1225.5996235430962,23.381003597946574,0.07145909357381379,0.011545759731568756,0.6432022041038628,0.0001334977856434569,0.11248779296806342,0.09588623046816475,0.06213378906212076,0.08361816406198963,0.09027099609319902,0.08972167968695238,0.0686645507808309,0.09564208984316624,0.11187744140556714,0.18969726562384218,0.15883550292967066,0.050488224205970246,-3.902976707972154e-05,Oak
902.256517763117,20.034153833934276,0.08281556970421562,0.013052342038222423,0.6657805975927018,0.00017057482378431027,0.10864257812433689,0.10534667968685701,0.0659790039058473,0.07788085937452464,0.08691406249946952,0.07965087890576385,0.06774902343708648,0.10253906249937415,0.11383056640555522,0.19146728515508138,0.15742704227000942,0.05472206261036855,-3.8928133850167573e-05,Oak
857.1391613369848,19.37650435066639,0.08037043406700123,0.012949884351502166,0.7223476413053252,0.00016803997234885555,0.10565185546810514,0.09814453124940097,0.06842041015583239,0.08306884765574299,0.09710693359315731,0.08581542968697622,0.06915283203082792,0.09747314453065507,0.10900878906183466,0.18615722656136377,0.15870879425691742,0.050885129455868726,-6.8727279314372e-06,Oak
903.2027410110616,19.511347839104246,0.08151476614388438,0.011006278355909093,0.7981527910975686,0.00012138864051819709,0.08166503906200155,0.09271240234318412,0.06933593749957681,0.09899902343689575,0.13464355468667819,0.11853027343677654,0.08477783203073255,0.08648681640572212,0.08520507812447994,0.14764404296784883,0.15685148246523545,0.05635060090575798,-6.388872390936644e-06,Oak
1498.4903663675755,23.685043608370584,0.10118076788073195,0.014071200670422541,0.5894031358056908,0.00019859491049543487,0.1026611328118734,0.09710693359315731,0.06542968749960065,0.08209228515574894,0.09991455078064017,0.09417724609317518,0.07061767578081898,0.09320068359318115,0.11315917968680933,0.18164062499889136,0.1548854123745512,0.0615490601685347,-4.730858979557937e-05,Oak
1637.9207719550177,23.382292401306266,0.10984576624161133,0.013922955252911045,0.5447714535644733,0.00019442091353317635,0.07525634765579067,0.08624267578072362,0.06408691406210884,0.11468505859305002,0.1570434570302915,0.12048339843676462,0.07678222656203136,0.08166503906200155,0.08111572265575491,0.1426391601553794,0.15142478707540227,0.06962981856190002,-4.344693721197569e-05,Oak
1012.3927391801137,19.81797623361062,0.09989101234134036,0.011587559304706311,0.8122170337389129,0.000134611268197052,0.0881958007807117,0.09301757812443226,0.06390380859335996,0.09509277343691959,0.1382446289054062,0.10742187499934434,0.07128906249956489,0.0839843749994874,0.09619140624941289,0.1626586914052572,0.1519984762225318,0.0683684210714309,-4.1369283731557587e-05,Oak
1649.6429070164938,26.779085444892996,0.07209258103669262,0.010166328936310295,0.6549749224829273,0.00010354943213781835,0.09082031249944568,0.09765624999940395,0.06958007812457531,0.0995483398431424,0.1199951171867676,0.09558105468691662,0.07299804687455445,0.08862304687445909,0.09918212890564464,0.16601562499898673,0.15771771344099647,0.05387857311752039,-4.190221363256032e-05,Oak
740.4486312020076,16.320942673136486,0.15101394763289205,0.018081534770863085,0.7035992502715981,0.00032864946350365644,0.08563232421822733,0.08422851562448591,0.057128906249651314,0.09423828124942481,0.13739013671791142,0.11785888671803064,0.07653808593703285,0.08361816406198963,0.10296630859312154,0.16040039062402098,0.14980828113580275,0.07304284137810475,1.824565039778093e-05,Oak
346.84764050779467,11.298928996295817,0.13623716299397523,0.01608940920341478,0.8756707815078291,0.00026024410904951386,0.05340576171842403,0.07360839843705072,0.06970214843707456,0.13256835937419087,0.19427490234256423,0.14117431640538833,0.08551025390572808,0.07098388671831675,0.06561279296834953,0.11315917968680933,0.15193569387825628,0.06850782947558552,-6.600894837554279e-07,Oak
812.7211733331227,17.639357145904757,0.13374184222980343,0.01687189967622845,0.8203731118095143,0.0002859876460753225,0.08502197265573107,0.08703613281196877,0.058654785155891995,0.0884399414057102,0.14129638671788758,0.12127685546800977,0.07720947265577875,0.08502197265573107,0.09906005859314539,0.15698242187404185,0.15156314272315308,0.06932814393671304,-5.8339112545156454e-05,Oak
371.61856276448975,13.006879470790825,0.10352430535123908,0.014037072792337174,0.8557471123865925,0.00019733514255712646,0.07702636718702986,0.08081054687450677,0.0610961914058771,0.11492919921804852,0.17034912109271028,0.11859130859302618,0.07604980468703583,0.07580566406203731,0.08496093749948144,0.14038085937414319,0.1524485264871671,0.06735892328016257,1.213110640913026e-05,TazeYaprak
436.4405851116602,13.42927880777683,0.10637547647673107,0.013441452349718715,0.8855580589095093,0.00018090939337051255,0.07800292968702391,0.08276367187449485,0.06054687499963045,0.10925292968683317,0.16497802734274306,0.1130981445305597,0.07543945312453955,0.08099365234325565,0.08728027343696727,0.14764404296784883,0.15425471953859143,0.06311306737886575,-9.560787965069377e-06,TazeYaprak
437.7895841729347,13.520457861228564,0.10296489595384345,0.015609708764686408,0.8479679567054643,0.00024397055227734371,0.09985351562439054,0.09942626953064315,0.0626831054683674,0.07678222656203136,0.10565185546810514,0.08966064453070276,0.07165527343706264,0.09692382812440842,0.11126708984307088,0.18609619140511416,0.15709695602250387,0.055662592307756165,-1.3398740420773005e-05,TazeYaprak
423.71858446452956,12.638570398234812,0.10938665075890634,0.01384193440038843,0.9018071532160207,0.00019186537887134873,0.09002685546820051,0.09118652343694343,0.06298828124961554,0.0880126953119628,0.13720703124916256,0.10913085937433391,0.07409667968704775,0.08972167968695238,0.09747314453065507,0.16015624999902248,0.15244975530403043,0.06735614211952307,4.793443529719796e-05,TazeYaprak
391.62020177167534,12.99526134989825,0.09651274407499291,0.013669841828192591,0.8804940449470513,0.0001872144173540161,0.07879638671826907,0.08715820312446802,0.07165527343706264,0.10894775390558503,0.1401977539053943,0.11077880859307386,0.07879638671826907,0.08752441406196579,0.08477783203073255,0.15136718749907613,0.15626895114406758,0.05794646393281325,-5.95163187586484e-06,TazeYaprak
368.47098987559235,13.124418627743948,0.09961079883745937,0.01405737469411994,0.8654465990641048,0.00019797308487548497,0.08056640624950825,0.09057617187444716,0.07147216796831377,0.10180664062437862,0.13745117187416106,0.11029052734307683,0.07836914062452167,0.08703613281196877,0.08837890624946057,0.15405273437405972,0.15675239040649086,0.056625664464209566,-3.54546568610472e-05,TazeYaprak
427.26991802423754,14.028075399901653,0.0954807281773156,0.014318962436785774,0.773447989560511,0.00020544837947241755,0.08270263671824522,0.0853271484369792,0.0635375976558622,0.10638427734310067,0.1569213867177922,0.11120605468682125,0.0700073242183227,0.08282470703074447,0.09002685546820051,0.151062011717828,0.15287524792268894,0.06638475989523777,-5.397153639649932e-06,TazeYaprak
310.04467278467155,12.017962598425651,0.10412332250402057,0.014809785415770441,0.8716850411190604,0.00021972266663947794,0.08142089843700304,0.08782958984321393,0.06835937499958276,0.1068725585930977,0.1464233398428563,0.11108398437432199,0.07586669921828694,0.08483886718698218,0.08953857421820349,0.1477661132803481,0.15456153098851363,0.062357925818784236,-1.3659869533135716e-05,TazeYaprak
299.92659827117666,11.29240239339893,0.11971731306342849,0.016156391858912836,0.8811322855337681,0.00026164503143667674,0.06683349609334208,0.07690429687453061,0.0666503906245932,0.12042236328051499,0.1777954101551648,0.1293334960929606,0.08068847656200752,0.07135009765581452,0.07983398437451272,0.13018798828045539,0.15517324854615772,0.0608197394722957,-6.4411575924852116e-06,TazeYaprak
408.17643479429853,12.758464348960569,0.11349769487081512,0.013987834276531833,0.8641331691840433,0.0001962381010642263,0.0668945312495917,0.08068847656200752,0.06719970703083984,0.11358642578055672,0.18090820312389583,0.12896728515546285,0.07385253906204924,0.07855224609327055,0.07879638671826907,0.13055419921795317,0.1543465871092754,0.0628880658127991,-1.8955243871318444e-05,TazeYaprak
379.9179900625598,12.177236557598576,0.11671070892500504,0.01435730481511906,0.886642831601889,0.00020653889653283398,0.06707763671834059,0.08123779296825416,0.06262207031211778,0.11737060546803361,0.18334960937388092,0.12969970703045838,0.07965087890576385,0.07257080078080706,0.07684326171828099,0.1295776367179591,0.15526484328772616,0.060585528079979876,-1.6768522035852622e-05,TazeYaprak
537.8551210891858,16.734907692472653,0.07124161556784778,0.013857099697390449,0.6928626258772569,0.0001921909178090795,0.10223388671812601,0.09851074218689873,0.0686645507808309,0.08923339843695535,0.09283447265568338,0.08551025390572808,0.06854248046833164,0.09906005859314539,0.11016845703057758,0.18524169921761938,0.15902977641224655,0.04987291838936025,-3.813971841627311e-05,TazeYaprak
449.5387859213548,14.832831439101472,0.08243487511686229,0.013187919342459258,0.8479129799793126,0.00017409982565224407,0.09436035156192407,0.0913085937494427,0.07293701171830483,0.09594726562441439,0.10974121093683019,0.09338378906193003,0.07147216796831377,0.09313964843693151,0.10345458984311856,0.17425537109268643,0.15786073036703813,0.05345809183213882,-4.806882195601696e-05,TazeYaprak
455.0614349783725,13.4649928167053,0.10773496392520805,0.013519704409574633,0.8684947207315825,0.0001831906845224109,0.06311035156211481,0.07672119140578172,0.06152343749962449,0.12280273437425046,0.2035522460925076,0.12780761718671993,0.07373046874954998,0.07446289062454552,0.07470703124954402,0.12158203124925791,0.15178900275592538,0.06883223384338705,2.4989783893085698e-05,TazeYaprak
391.06132986878026,12.956887511432024,0.11203944381522643,0.013719337750972553,0.885227418933395,0.00018866880173877697,0.07147216796831377,0.07830810546827204,0.06103515624962747,0.11090087890557311,0.18774414062385408,0.1221923828117542,0.07238769531205817,0.07745361328077725,0.08148193359325268,0.13702392578041367,0.14980101054426426,0.07305775121922853,6.815176658581196e-05,TazeYaprak
326.34849567356576,11.59860586908705,0.11886765552041086,0.014960097042511392,0.9079478005958513,0.00022422926328410044,0.0786743164057698,0.08569335937447696,0.06774902343708648,0.10363769531186744,0.1513061523428265,0.10900878906183466,0.07574462890578769,0.08612060546822435,0.09094238281194493,0.1511230468740776,0.15443674610589292,0.06266633247541786,9.258244759860419e-06,TazeYaprak
360.2969836213304,12.334961119141642,0.10734998637173505,0.014251440825896803,0.8803714826037965,0.00020341785087695034,0.07861328124952018,0.08306884765574299,0.06384277343711033,0.1082153320305895,0.1629028320302557,0.11523437499929666,0.07147216796831377,0.08245849609324671,0.08679199218697026,0.14739990234285033,0.15220619253661388,0.06790473272937511,3.368654709695725e-05,TazeYaprak
356.1525669262394,11.939403234275513,0.11414000317631395,0.015685953735286282,0.8921063279349124,0.00024646349968683606,0.08325195312449186,0.0846557617182333,0.06494140624960362,0.10424804687436372,0.14874267578034214,0.1135253906243071,0.07537841796828992,0.08337402343699112,0.09100341796819456,0.1508789062490791,0.15282820716779938,0.06649298359662009,9.40614047898965e-06,TazeYaprak
424.5476885094555,12.635002848131096,0.11140223970428847,0.013879177379514386,0.8900874896208062,0.00019319456200481955,0.07769775390577577,0.08789062499946355,0.06085205078087859,0.10180664062437862,0.16705322265523037,0.11926269531177207,0.0777587890620254,0.07891845703076832,0.08428955078073554,0.1444702148428682,0.1516145223555376,0.06921570908665248,4.251195904085897e-05,TazeYaprak
350.41709784202175,12.629876939441743,0.10482882937098956,0.014552291526383118,0.880562798029906,0.00021200072096839827,0.07904052734326757,0.08099365234325565,0.06030273437463194,0.10296630859312154,0.1762084960926745,0.11901855468677357,0.07257080078080706,0.0766601562495321,0.0884399414057102,0.1437988281241223,0.15351290814812898,0.06489657006064418,-8.132956295271668e-06,TazeYaprak
395.72457922261316,12.79767833754471,0.10797773859189155,0.014315877547360545,0.8636181215973645,0.0002053049991828567,0.08642578124947249,0.08813476562446207,0.06219482421837039,0.09411621093692556,0.14971923828033618,0.10778808593684211,0.07507324218704178,0.0881958007807117,0.09075927734319604,0.15759277343653813,0.1542631227653684,0.06309252513945231,-5.894295728610994e-06,TazeYaprak
446.6104952405368,13.038967199028423,0.11100499901894326,0.014185902568862985,0.8997645102156309,0.00020144997989047448,0.08654785156197176,0.08392333984323777,0.06249999999961853,0.09436035156192407,0.1503906249990821,0.10913085937433391,0.07708740234327949,0.08514404296823032,0.09411621093692556,0.15679931640529296,0.15217912039220782,0.06796538155617092,4.788868477002241e-05,TazeYaprak
318.83335868235594,12.001586815674042,0.1032456538630991,0.016855184249437043,0.8746133188192813,0.0002843861757820636,0.09356689453067892,0.08972167968695238,0.06256103515586815,0.08947753906195387,0.12670898437422662,0.10302734374937117,0.07263183593705669,0.09356689453067892,0.10003662109313942,0.16870117187397032,0.15579074373747948,0.059220114316216745,1.6733168500731035e-06,TazeYaprak
379.61212540786187,12.64711769657967,0.10918276415836722,0.013401812638951464,0.9035963051618234,0.00017983776363703863,0.08782958984321393,0.08825683593696132,0.05609130859340764,0.08837890624946057,0.15313720703031533,0.1135253906243071,0.07183837890581153,0.08624267578072362,0.09454345703067295,0.16015624999902248,0.15276520233986193,0.06663760745757605,1.0387419811455275e-05,TazeYaprak
321.5100601255954,11.227216286464035,0.11340416098126532,0.016796337752621463,0.8942421535750253,0.0002824493698138071,0.08557128906197771,0.09014892578069977,0.06811523437458425,0.10211181640562675,0.12988281249920725,0.10412597656186447,0.07672119140578172,0.09045410156194791,0.09588623046816475,0.15698242187404185,0.1548336989353307,0.061679035724158775,-6.661739313845171e-06,TazeYaprak
523.9851842711785,14.935630187667307,0.10235792641243502,0.0169731005078831,0.669335881571117,0.00028841220484039165,0.10949707031183167,0.0977783203119032,0.05926513671838827,0.07501220703079216,0.10565185546810514,0.0828857421869941,0.0731201171870537,0.09899902343689575,0.11248779296806342,0.185302734373869,0.1562548186030687,0.057984562061202546,-3.60577121573024e-05,TazeYaprak
402.2735693713778,13.008660279039859,0.10867619295801438,0.014459887354753342,0.89736039861675,0.00020934359930233103,0.0828857421869941,0.0839843749994874,0.06262207031211778,0.10363769531186744,0.15582275390529893,0.10803222656184062,0.0728759765620552,0.08471679687448293,0.095520019530667,0.14990234374908507,0.1545209605627295,0.062458390313783335,3.8524614259895565e-06,TazeYaprak
429.18875780331564,13.131397516701748,0.1067580287582742,0.01370467032850066,0.8698097462193517,0.00018806278901361024,0.08538818359322883,0.08270263671824522,0.05920410156213864,0.10028076171813793,0.1611328124990165,0.10919189453058355,0.0728759765620552,0.0822143554682482,0.09509277343691959,0.15191650390532277,0.15005325957166055,0.07253824553431319,6.706159109372639e-05,TazeYaprak
425.35765594971406,13.752151113678067,0.09496940946014967,0.013192409028563185,0.8664642689352287,0.0001743408210920774,0.08166503906200155,0.08825683593696132,0.058532714843392744,0.10052490234313644,0.17004394531146214,0.1099853515618287,0.07525634765579067,0.08227539062449783,0.0880126953119628,0.14544677734286227,0.15520257522787262,0.06074486329286666,-5.427714877363615e-06,TazeYaprak
565.5875252844558,16.148221952694584,0.078769231756997,0.01224050283296986,0.8486719537366935,0.0001500044106002203,0.09136962890569232,0.08306884765574299,0.06591796874959767,0.10589599609310366,0.13067626953045242,0.0999755859368898,0.07946777343701496,0.08813476562446207,0.09313964843693151,0.16235351562400907,0.15663279708736141,0.056955637566477806,-1.4682048891489135e-05,TazeYaprak
324.1411859073849,12.410958618792684,0.09899435543565277,0.015687815443762246,0.8457107546544059,0.00024635549467962595,0.09692382812440842,0.09594726562441439,0.06927490234332717,0.08697509765571915,0.1051025390618585,0.09204101562443823,0.07696533203078024,0.09374999999942779,0.10394287109311558,0.17907714843640699,0.15732548039855068,0.055013371024642946,-1.5239772771583832e-05,TazeYaprak
426.06634764052103,13.379565485693746,0.10179171660126118,0.01493009849028764,0.8868519818865073,0.00022317678206838155,0.09436035156192407,0.09661865234316028,0.06561279296834953,0.09033203124944865,0.11340332031180783,0.09405517578067593,0.07629394531203433,0.09338378906193003,0.10363769531186744,0.17230224609269834,0.1565483234286013,0.05718741300041829,-8.214120987419688e-06,TazeYaprak
342.2560190979943,12.37346065317198,0.11168843807150566,0.015292628900318302,0.8714681721240402,0.00023418516685517923,0.0786743164057698,0.08502197265573107,0.06707763671834059,0.10736083984309472,0.1480102539053466,0.11322021484305896,0.074218749999547,0.08349609374949038,0.08959960937445312,0.1533203124990642,0.15452712385536335,0.06244314026936223,1.2012007592198283e-05,TazeYaprak
376.73067049260965,13.36555563736185,0.09764379290437106,0.01551782354460697,0.7935141491276326,0.00024110127299988948,0.08172607421825118,0.09454345703067295,0.06646728515584431,0.10363769531186744,0.14361572265537342,0.11047363281182572,0.0728759765620552,0.08282470703074447,0.09100341796819456,0.1528320312490672,0.1556018740382589,0.05971460934860343,6.915164395762339e-06,TazeYaprak
326.8286067119133,12.200559260493861,0.10901839982501159,0.014562660314291783,0.8919257474021328,0.00021239490845084772,0.09033203124944865,0.09204101562443823,0.05902099609338976,0.08984374999945163,0.14123535156163797,0.10174560546812898,0.0722045898433093,0.08807373046821243,0.10009765624938904,0.16540527343649045,0.15502311137557237,0.061201411040663505,-2.1242997740290704e-05,TazeYaprak
438.92202842612073,13.439369812334363,0.11177369954571216,0.013961691770679085,0.8563137447735217,0.00019525153647705345,0.08331298828074149,0.07812499999952316,0.060791015624628957,0.10113525390563272,0.1635742187490016,0.11517333984304703,0.07055664062456936,0.08068847656200752,0.0922241210931871,0.1544189453115575,0.15195876335105452,0.0684566433169804,5.322185444096447e-05,TazeYaprak
366.83099093154823,12.350627291099448,0.11968836434226415,0.01390721811788799,0.9009686275741571,0.00019377484365266348,0.07745361328077725,0.0828857421869941,0.06414794921835847,0.10473632812436073,0.16345214843650235,0.11273193359306194,0.07232666015580855,0.08544921874947846,0.0913085937494427,0.14550781249911188,0.1535790891600958,0.06473979569390663,-3.8970352625904865e-06,TazeYaprak
378.4335066834549,11.877048547066883,0.12928724007506695,0.014163336933804173,0.9133198653805127,0.00020137417373235282,0.05664062499965429,0.06701660156209097,0.052490234374679624,0.12390136718674376,0.24096679687352923,0.1424560546866305,0.071105957030816,0.06610107421834654,0.06805419921833462,0.11126708984307088,0.14929326757973724,0.07408979706165167,6.219600139441617e-05,TazeYaprak
508.0008764783804,14.957081382914604,0.09302595998571686,0.013683345775562423,0.8317483437589228,0.0001874695988916868,0.08563232421822733,0.08770751953071468,0.06140136718712523,0.09942626953064315,0.15502929687405376,0.10260009765562378,0.06829833984333314,0.086669921874471,0.0975341796869047,0.15570068359279968,0.15504603428138947,0.06114331547579858,2.5252115917388523e-05,TazeYaprak
553.7802496425674,15.351544456995965,0.09903975908548371,0.012945177248730348,0.8552557318199375,0.00016779773007925342,0.09405517578067593,0.08721923828071765,0.0562133789059069,0.086669921874471,0.14453124999911784,0.10369873046811706,0.0700073242183227,0.09143066406194195,0.10339355468686894,0.16278076171775646,0.15287983178210537,0.0663742028786205,4.5522870891242824e-05,TazeYaprak
549.62642769824,15.382650234052434,0.09080853228057913,0.01267038585519963,0.8480582701172745,0.00016074971562839833,0.08685302734321988,0.0870971679682184,0.0626831054683674,0.09301757812443226,0.15722656249904035,0.10388183593686595,0.06475830078085475,0.08850097656195983,0.09906005859314539,0.1569213867177922,0.15331724382527182,0.06535748250651055,-4.5813387832099865e-06,TazeYaprak
570.7596559138772,15.940568885044808,0.08559110921250561,0.012074285809294023,0.8572239420897708,0.00014592927503144615,0.09613037109316326,0.09014892578069977,0.060913085937128214,0.09075927734319604,0.13745117187416106,0.09631347656191215,0.07037353515582047,0.0926513671869345,0.09857177734314836,0.16668701171773262,0.15364730387787215,0.06457773443429564,3.806740877196187e-05,TazeYaprak
545.9083663597339,15.46669975761899,0.09542631694452641,0.012386175633312674,0.8833487535147254,0.0001535834323043265,0.08343505859324075,0.0795288085932646,0.05834960937464386,0.1019897460931275,0.18029785156139955,0.11737060546803361,0.06872558593708053,0.07965087890576385,0.08630371093697324,0.14434814453036895,0.1528605068157559,0.0664186963869813,1.146524606856673e-05,TazeYaprak
578.3476047850901,15.18491645967748,0.09834614163162841,0.012608472629098585,0.849582803786286,0.0001591278399576764,0.09686279296815879,0.08679199218697026,0.06219482421837039,0.08813476562446207,0.13806152343665734,0.10278320312437265,0.06970214843707456,0.08795166015571318,0.10137939453063123,0.16613769531148598,0.15186582661392514,0.06866256971788282,6.562864924633477e-05,TazeYaprak
495.4155053349736,14.77014701295191,0.08981891507312452,0.012319897363709639,0.869916441720901,0.00015199007863415066,0.08862304687445909,0.08331298828074149,0.05975341796838529,0.09832763671814986,0.1606445312490195,0.11206054687431603,0.06726074218708947,0.08160400390575193,0.09405517578067593,0.15435791015530786,0.15508180931520443,0.06105251995927518,-1.3328618912348123e-05,TazeYaprak
404.02511804246683,13.418941619134712,0.09859012424025668,0.013983184315845503,0.8674169000736791,0.000195792667541525,0.06842041015583239,0.07751464843702688,0.07025146484332122,0.12542724609298445,0.1810913085926447,0.11645507812428921,0.07202148437456041,0.07794189453077428,0.08160400390575193,0.12927246093671096,0.150529021724066,0.07154572937713359,5.734518161669371e-05,TazeYaprak
358.7091690433528,12.371421672531255,0.10325231765665593,0.013403537021397929,0.9187088208786423,0.00017978568956384435,0.0984497070306491,0.08605957031197473,0.06018066406213268,0.09277343749943376,0.13464355468667819,0.09478759765567146,0.06634521484334506,0.08734130859321691,0.1068725585930977,0.17254638671769684,0.15291267089404326,0.06629851320738123,5.3171933841435356e-05,TazeYaprak
439.8951413215548,13.89388751433805,0.0925975093693453,0.01230669609959497,0.9059557459977612,0.00015167316984409708,0.08404541015573702,0.08184814453075044,0.054626464843416586,0.10296630859312154,0.18359374999887942,0.10382080078061633,0.07025146484332122,0.08349609374949038,0.086669921874471,0.1486816406240925,0.1534507148130624,0.065043492349541,1.1323549029116412e-05,TazeYaprak
355.02149878519873,12.034953780845452,0.1128666078365343,0.015142291176224622,0.9348761221130203,0.0002295237756834744,0.09228515624943673,0.08001708984326161,0.05212402343718186,0.09259033203068487,0.1697998046864636,0.10565185546810514,0.06195068359337188,0.08319091796824224,0.09771728515565357,0.16467285156149492,0.1512978256550289,0.06990526249908709,0.00013712336285243889,TazeYaprak
388.8633889026061,11.180194036170583,0.17551413463238155,0.019555642495126316,0.8811512081910594,0.0003836508356444895,0.06347656249961257,0.0724487304683078,0.05859374999964237,0.11743164062428325,0.18188476562388986,0.13275146484293973,0.08105468749950528,0.07830810546827204,0.08422851562448591,0.12982177734295763,0.14905193683311552,0.07457411011617002,4.3707581363216696e-05,TazeYaprak
491.2268176450774,14.864670319185493,0.08918314775993619,0.013555376429737174,0.8219007404878618,0.00018392639777880477,0.09857177734314836,0.08697509765571915,0.06359863281211182,0.09606933593691364,0.1286621093742147,0.09747314453065507,0.06469726562460512,0.08813476562446207,0.10437011718686297,0.17144775390520356,0.15644141087159605,0.05747923745535571,1.6235734022736313e-05,TazeYaprak
345.3803624052745,11.882659800476418,0.12720485395412784,0.013883904351017313,0.927672466878926,0.00019324967757541593,0.06945800781207606,0.07586669921828694,0.05792236328089647,0.11053466796807535,0.20635986327999048,0.12438964843674077,0.0690917968745783,0.07757568359327652,0.08032226562450975,0.12847900390546582,0.15082697803503636,0.07091544592118723,5.803899740734666e-05,TazeYaprak
538.6877209965669,15.627411102479213,0.0813716232042734,0.012634133038945092,0.8341542153913507,0.00015972497102243794,0.09893798828064612,0.08972167968695238,0.06054687499963045,0.08990478515570126,0.1361694335929189,0.08905029296820648,0.06835937499958276,0.08612060546822435,0.10809326171809025,0.1730957031239435,0.15520763114526206,0.060731943884362906,1.996414060198211e-05,TazeYaprak
446.1223620885205,13.034128646383518,0.12122470628585649,0.015073118778438477,0.9005376092977074,0.00022788341796273163,0.06726074218708947,0.07379150390579961,0.06384277343711033,0.1317749023429457,0.1779785156239137,0.12207031249925494,0.07891845703076832,0.07452392578079514,0.08203124999949932,0.12780761718671993,0.1544289087285209,0.06268564366945242,7.489233942675524e-05,TazeYaprak
501.45648620596296,14.376889671748632,0.09351892691421254,0.012601814537045897,0.8874377319698932,0.00015895816852330908,0.10083007812438458,0.08941650390570424,0.061645507812123745,0.08654785156197176,0.13031005859295464,0.09393310546817667,0.0655517578120999,0.09606933593691364,0.10479736328061036,0.17089843749895692,0.15399377164839087,0.0637471259489653,9.710083957265836e-05,TazeYaprak
332.2829711089245,11.884970516035196,0.10881710457443843,0.01455248028481109,0.9082421665293778,0.00021195567323867856,0.0997924804681409,0.0908813476556953,0.06152343749962449,0.08422851562448591,0.1320190429679442,0.08892822265570723,0.06762695312458723,0.08984374999945163,0.11187744140556714,0.17327880859269237,0.15592814649105222,0.05885737766524352,3.217766847046831e-05,TazeYaprak
633.4318445473289,17.529363476696684,0.07174602632085211,0.011260921588713302,0.8388072947217301,0.00012697553593225304,0.08978271484320201,0.08520507812447994,0.0644531249996066,0.10192871093687787,0.16180419921776243,0.09722900390565656,0.06054687499963045,0.08410644531198665,0.09661865234316028,0.15832519531153366,0.15411813191494741,0.06344587605799981,1.6632933885571206e-05,TazeYaprak
584.2098388142747,16.75597877367805,0.07844885388875562,0.011886144884114415,0.8187413687237222,0.00014146259233594952,0.07684326171828099,0.0735473632808011,0.0593261718746379,0.11682128906178697,0.20367431640500686,0.11401367187430411,0.06549072265585028,0.07592773437453657,0.08007812499951124,0.13427734374918043,0.15433429149458605,0.06291823457939719,3.983230643303783e-06,TazeYaprak
418.05829464787075,13.157169103401593,0.11408730018959809,0.01325325060422234,0.9141500969087408,0.00017600019262936542,0.07501220703079216,0.08007812499951124,0.05773925781214759,0.10833740234308875,0.18145751953014247,0.12084960937426238,0.07513427734329141,0.0791015624995172,0.08441162109323479,0.13787841796790845,0.15161952035287843,0.06920476010492736,8.237611071122815e-05,TazeYaprak
545.2964142374241,15.104591181840345,0.10512785860322318,0.01324939701685839,0.8441685564852172,0.00017575200092248168,0.086669921874471,0.08282470703074447,0.06121826171837635,0.10473632812436073,0.15258789062406866,0.10479736328061036,0.06494140624960362,0.08483886718698218,0.10382080078061633,0.15356445312406272,0.1537123571775515,0.0644227368614056,-1.47765705461836e-05,TazeYaprak
590.9445250258284,16.10291112379264,0.08503144793163198,0.012307268833935878,0.8184928061638267,0.00015176405597322639,0.07250976562455744,0.07391357421829886,0.06616210937459617,0.12628173828047923,0.17944335937390476,0.11608886718679144,0.07495117187454253,0.07800292968702391,0.08135986328075341,0.1312866210929487,0.15541311295188778,0.06020417009128813,3.287793789484795e-05,TazeYaprak
393.23369905335903,11.963608833468344,0.12272841686248706,0.01415230310361901,0.90230232881676,0.00020059932156493807,0.07495117187454253,0.08068847656200752,0.060791015624628957,0.10186767578062825,0.18804931640510222,0.11871337890552543,0.07159423828081302,0.07891845703076832,0.08624267578072362,0.1381835937491566,0.15047673373030757,0.07165563745496414,5.764727732540739e-05,TazeYaprak
359.31110754020307,13.453764012997413,0.08835897169417689,0.013735357101952393,0.8762651318125608,0.00018873022800295063,0.12292480468674973,0.10131835937438159,0.05847167968714311,0.06011962890588306,0.08197021484324969,0.06683349609334208,0.05596923828090839,0.10186767578062825,0.13891601562415212,0.21160888671745842,0.1569078232988107,0.05619352953385425,1.8282303827915503e-05,TazeYaprak
705.5670534974487,18.29937740734987,0.07738364793836595,0.011640758004895365,0.8185574850456542,0.0001355850786021205,0.11169433593681827,0.0913085937494427,0.05883789062464088,0.07464599609329439,0.10760498046809322,0.0857543945307266,0.06701660156209097,0.09570312499941587,0.1168823242180366,0.19055175781133696,0.15800959805420256,0.05301645684868159,2.7306144549143834e-06,TazeYaprak
558.7339974289755,15.677413839203886,0.09208673441534336,0.012732388264291027,0.8239829135129795,0.0001622361604363656,0.09796142578065209,0.08905029296820648,0.060913085937128214,0.09179687499943971,0.13281249999918937,0.09582519531191512,0.0657958984370984,0.08764648437446504,0.10778808593684211,0.1704101562489599,0.1559080194791762,0.05891067166364454,2.2202577227592065e-05,TazeYaprak
496.84305649475743,13.70743267658536,0.12827780394862187,0.013885398014604236,0.9041885990109516,0.00019308282331235023,0.09356689453067892,0.08697509765571915,0.05438232421841807,0.09478759765567146,0.13702392578041367,0.10357666015561781,0.06341552734336293,0.08880615234320796,0.10650634765559994,0.17095947265520653,0.14649662886101805,0.07947650913857403,0.00022485490397274274,TazeYaprak
350.6647067200564,12.549577817906188,0.11343978862677304,0.013599204868529181,0.9092430879308532,0.00018537239531689762,0.060791015624628957,0.06732177734333909,0.05383300781217143,0.12048339843676462,0.2464599609359957,0.13928222656164987,0.06744384765583836,0.06439208984335698,0.0690917968745783,0.11090087890557311,0.15095041552135977,0.0706523165048133,1.4782484926046856e-05,TazeYaprak
347.18356383980665,11.985028786464536,0.1196781751954015,0.013350474561423475,0.9287292045583604,0.00017859141291721016,0.060363769530881566,0.06732177734333909,0.055297851562162485,0.12103271484301127,0.24261474609226918,0.1295776367179591,0.06811523437458425,0.06768798828083686,0.07214355468705967,0.11584472656179294,0.15254871821405971,0.06713170893621118,2.498175980848623e-05,TazeYaprak
473.82299812261533,14.3585631858781,0.09506297014803428,0.013551852492246745,0.8525246433173419,0.00018392109762325833,0.07482910156204328,0.07904052734326757,0.06225585937462002,0.11828613281177804,0.1820068359363891,0.11419677734305299,0.06860351562458128,0.08056640624950825,0.08294677734324372,0.13726806640541217,0.1568215881568643,0.05643374222936753,-2.3600374228558082e-05,TazeYaprak
485.2528134978551,14.371022788921742,0.09412191658443608,0.013793108727442249,0.8493389568707669,0.00019057419163854251,0.09094238281194493,0.09063720703069679,0.058959960937140135,0.09759521484315432,0.13946533203039876,0.10339355468686894,0.06677246093709245,0.0850830078119807,0.10302734374937117,0.16412353515524827,0.1529773821562301,0.06614906138535849,4.1559994504445415e-05,TazeYaprak
376.5070590532029,13.491862725913649,0.09295588042070205,0.012663342293795845,0.8885491009870758,0.00016066122511690804,0.07025146484332122,0.07208251953081005,0.07305908203080408,0.12463378906173929,0.19201660156132802,0.11462402343680038,0.07025146484332122,0.07434082031204625,0.08050537109325863,0.12823486328046732,0.15397001150460238,0.06380449303134539,-1.2051707056849518e-06,TazeYaprak
141.51841645870843,3.4098009602269004,0.5966487996312054,0.08080330381302814,0.9691259209416649,0.006589995295511139,0.020385742187375575,0.039855957031006736,0.015991210937402398,0.0766601562495321,0.09008789062445015,0.22344970702988617,0.053222656249675156,0.08282470703074447,0.3316650390604757,0.06585693359334804,0.11401045334655908,0.12157053218301431,0.002180395451398051,TazeYaprak
154.2699321922089,3.1948895186852844,0.6156754828031746,0.08613476036722242,0.966371480567051,0.007509199972203962,0.019714355468629673,0.043090820312236995,0.011779785156178101,0.07141113281206414,0.0777587890620254,0.23406982421732134,0.05340576171842403,0.08038330078075938,0.3433227539041545,0.06506347656210289,0.11325366755461946,0.12227585433392532,0.0022643291676133956,TazeYaprak
193.00405604326943,3.850180454267141,0.59012924761002,0.08119755919691,0.9654019114117661,0.0066413767704376625,0.02368164062485546,0.03936767578100972,0.015197753906157239,0.0733032226558026,0.09039306640569827,0.21105957031121178,0.05236816406218037,0.08172607421825118,0.3446044921853967,0.06829833984333314,0.1107818471533422,0.12451971774917399,0.0025924888757417703,TazeYaprak
117.36140175014816,3.119795259121768,0.5928735621932025,0.09059630076437485,0.9777189590500103,0.008283945964749476,0.01861572265613638,0.043212890624736246,0.016357421874900163,0.08068847656200752,0.08935546874945462,0.2139892578111939,0.05523681640591286,0.08129882812450379,0.3307495117167312,0.07049560546831972,0.11661711595071342,0.1190723563002145,0.0021050216814833106,TazeYaprak
145.69034316584455,3.330197039300333,0.6140628424928052,0.09228286295093233,0.965518899232642,0.008598903480703914,0.01928710937488228,0.03735351562477201,0.014160156249913573,0.07250976562455744,0.08032226562450975,0.22961425781109854,0.05047607421844191,0.07672119140578172,0.3575439453103177,0.06201171874962151,0.10891597794516682,0.12615501383498726,0.0025937432272196627,TazeYaprak
169.3424845677841,3.5439343534937184,0.605142032799285,0.08309269822130114,0.9619759126142505,0.007007864301607665,0.017700195312391965,0.04296874999973774,0.013549804687417299,0.06652832031209394,0.09374999999942779,0.22393798827988318,0.04675292968721464,0.07629394531203433,0.3577880859353162,0.06072998046837933,0.10564408506402719,0.1289073506748941,0.0029647767336031462,TazeYaprak
97.29391958002759,2.7867849641949385,0.6152069130923212,0.0881920988347796,0.9762538021762575,0.007843816504248282,0.017883300781140848,0.04241943359349109,0.015319824218656495,0.07745361328077725,0.08612060546822435,0.21209716796745545,0.05731201171840019,0.08538818359322883,0.34118652343541755,0.06481933593710437,0.1189900399440652,0.11670110609317762,0.001559900794985829,TazeYaprak
120.71797124453802,4.428866119450976,0.46226804774033586,0.057159388590454455,0.9737388551478492,0.0032930992104699725,0.030700683593562615,0.05169677734343447,0.025207519531096144,0.09313964843693151,0.12371826171799488,0.20989990234246886,0.05847167968714311,0.08935546874945462,0.22558593749862313,0.0922241210931871,0.12941458502463773,0.10502210697341935,0.0009185901264239341,TazeYaprak
114.4538140248151,2.7499043357461472,0.6651342097643247,0.1439206675629382,0.9819998471529663,0.020797236459588198,0.0197753906248793,0.043762207030982894,0.010314941406187042,0.0635375976558622,0.06311035156211481,0.1763916015614234,0.04809570312470644,0.08032226562450975,0.43560791015359124,0.05908203124963939,0.11678613846845065,0.11890658362920503,0.0018764522794626566,TazeYaprak
152.9648678477035,2.9317500939689203,0.6675910346131589,0.13027293108387794,0.9730663366342105,0.017067206488680205,0.015258789062406868,0.0388793945310127,0.008972167968695238,0.06249999999961853,0.07800292968702391,0.19683837890504857,0.04779052734345831,0.07635498046828396,0.4215087890599273,0.053894042968421055,0.10948358369423535,0.1256627338088598,0.002716464972704449,TazeYaprak
133.8239709916912,3.242431383300234,0.6219360097986474,0.1221703528909147,0.9802462770335109,0.015010649094452006,0.023437499999856948,0.048156738280956075,0.01251220703117363,0.06359863281211182,0.07904052734326757,0.1822509765613876,0.051513671874685585,0.08703613281196877,0.38586425781014483,0.06658935546834356,0.11651773612499007,0.11916960575517477,0.0020801637159821554,TazeYaprak
155.4559167008949,2.92259502487752,0.7371899044465747,0.41086368195003314,0.9756353057144859,0.16882813392188872,0.016052246093652023,0.028259277343577516,0.008483886718698219,0.048828124999701975,0.053222656249675156,0.14147949218663647,0.03411865234354176,0.059631347655886034,0.5645141601528044,0.04541015624972284,0.09900572010917694,0.13407328275869823,0.003989944713443748,TazeYaprak
317.12691582805445,7.3885393981723935,0.3896256853704606,0.045554502030970806,0.9755349557524581,0.0020998482589999674,0.033630371093544734,0.056274414062156525,0.028869628906073794,0.0975341796869047,0.16040039062402098,0.2208862304674018,0.06860351562458128,0.08660888671822138,0.15515136718655304,0.09204101562443823,0.12520398381224282,0.11000790974973439,0.0011799678471604417,TazeYaprak
185.21277994509123,2.9541694356826182,0.6274887537977707,0.07704799825768956,0.9753923228528913,0.00601500518611001,0.01348876953116767,0.027893066406079754,0.009521484374941885,0.07763671874952614,0.10021972656188831,0.29425048827945405,0.053222656249675156,0.074218749999547,0.3070678710918758,0.04248046874974072,0.1016171300410473,0.13210502128440443,0.003360491234441343,TazeYaprak
180.79355169647957,2.8947424379223823,0.6265241938074357,0.07590420374263206,0.9715471287887419,0.0058365800440731315,0.01593017578115277,0.02557373046859391,0.008850097656195982,0.07861328124952018,0.09613037109316326,0.3009033203106634,0.05175781249968409,0.07922363281201646,0.2941894531232044,0.048828124999701975,0.10537005760220397,0.12913143973253075,0.0030272096417003655,TazeYaprak
202.57015919500714,3.4264770560791167,0.6093658090187689,0.09396287317475119,0.9758066922278015,0.008899234075453656,0.02215576171861477,0.03765869140602015,0.013305664062418789,0.07928466796826608,0.07751464843702688,0.24298095702976696,0.053222656249675156,0.08563232421822733,0.32391357421677297,0.06433105468710736,0.10914311787391379,0.12595855503868805,0.0028344444961176667,TazeYaprak
194.8896424433484,3.8151793256711457,0.5625322681295744,0.08959195774162534,0.9807111674556759,0.008076352094866433,0.029785156249818204,0.04168701171849556,0.017456054687393457,0.08898925781195685,0.08764648437446504,0.21307373046744948,0.053894042968421055,0.0911254882806938,0.30334472656064854,0.07299804687455445,0.11183755239549995,0.12357240646967267,0.0025959189951443346,TazeYaprak
193.9024665393099,4.119225027512559,0.5236222339953807,0.08216216037464281,0.983272203766733,0.00678090180417348,0.029235839843571556,0.04919433593719974,0.02264404296861179,0.08673095703072063,0.10430908203061334,0.19171142578007988,0.05828857421839423,0.08789062499946355,0.2848510742170114,0.08514404296823032,0.11409459342813874,0.1214915697362772,0.0025080444030240417,TazeYaprak
171.34867658797936,3.6697556129487254,0.5372979312775013,0.06478152843593732,0.985205708554292,0.004231034945793398,0.026794433593586457,0.0451049804684747,0.018432617187387496,0.09259033203068487,0.1026611328118734,0.21948242187366038,0.067993164062085,0.09301757812443226,0.25604248046718725,0.07788085937452464,0.1163103824198778,0.1193719929853957,0.0021335297957607146,TazeYaprak
135.37811477966756,2.830368145111297,0.6221536966909254,0.09355647588475365,0.9668731569278104,0.008826497783117657,0.018676757812386004,0.03375244140604399,0.01324462890616916,0.07153320312456339,0.08691406249946952,0.2582397460921738,0.05114746093718782,0.07904052734326757,0.3235473632792752,0.06390380859335996,0.11213106224524717,0.12330613386142578,0.0022684607214258413,TazeYaprak
124.93291186973042,2.749002548786354,0.6180248988682849,0.09325041908457732,0.9682584311504114,0.008770357692452902,0.019714355468629673,0.033386230468546226,0.012695312499922513,0.0731201171870537,0.09149169921819157,0.2615356445296537,0.046447753905966505,0.07861328124952018,0.3185424804668058,0.0644531249996066,0.11258828920214614,0.12288879079403724,0.0021588505701913467,TazeYaprak
125.62108260935332,2.9902746992994063,0.5849794417167202,0.0834675434381657,0.9698433821894584,0.007027780167735737,0.02239990234361328,0.03875732421851344,0.015441894531155749,0.07629394531203433,0.09210205078068785,0.25305175781095546,0.051940917968432976,0.08239746093699708,0.2941894531232044,0.07342529296830184,0.11454647011021786,0.12106561837681117,0.002212668099785329,TazeYaprak
170.77770945385717,3.665733354904204,0.543611067406768,0.06661281890524975,0.9844000014674867,0.004474558544884413,0.024780273437348753,0.048583984374703466,0.019348144531131907,0.09045410156194791,0.0908813476556953,0.2269287109361149,0.06286621093711629,0.0908813476556953,0.2679443359358646,0.077331542968278,0.114375735267062,0.12122693161794132,0.002379042063004219,TazeYaprak
141.2569171310229,3.6053583122791126,0.5263745280722409,0.06160730028052085,0.9764451692124372,0.003835052801599113,0.032531738281051444,0.04174804687474519,0.017517089843643082,0.08367919921823926,0.10968017578058056,0.24749755859223938,0.05609130859340764,0.08172607421825118,0.24566650390475056,0.08386230468698815,0.11345517590982367,0.12208890542120192,0.002303705312901126,TazeYaprak
149.21760566177468,3.823387803025602,0.5125917693220712,0.06345087342001866,0.9795950652458053,0.004056935223696642,0.03668212890602611,0.05114746093718782,0.021057128906121478,0.08587646484322585,0.0944213867181737,0.21118164062371103,0.05596923828090839,0.09381103515567742,0.25158691406096445,0.09826660156190023,0.11873134807214256,0.11696428836073672,0.002234425171915505,TazeYaprak
160.7487573334537,4.022257802328109,0.497325224330882,0.05864741780202061,0.9806325114012813,0.003461383647673712,0.04095458984350003,0.05535888671841211,0.025329589843595398,0.08728027343696727,0.0888671874994576,0.19238281249882577,0.0568847656246528,0.09613037109316326,0.24627685546724684,0.11053466796807535,0.12176460758429117,0.11380315508573927,0.001950174453352263,TazeYaprak
222.5396869817185,5.108550471007145,0.4867138555251398,0.08140461060721445,0.984695559153963,0.006642043202466931,0.03131103515605889,0.04809570312470644,0.021301269531119986,0.09027099609319902,0.12011718749926686,0.1992797851550337,0.05944824218713715,0.08428955078073554,0.2671508789046194,0.07873535156201944,0.11224361218750309,0.12320369024616173,0.0025934463598528126,TazeYaprak
271.20595557208173,5.889322634114195,0.43099736037410885,0.08590138044680459,0.9826937500357958,0.007388901798889966,0.04437255859347917,0.054199218749669195,0.02362060546860583,0.08862304687445909,0.1188964843742743,0.18945312499884367,0.05834960937464386,0.0891113281244561,0.2333374023423258,0.10003662109313942,0.11694809819365012,0.11874729511074697,0.002161861689280174,TazeYaprak
224.54804767422112,4.258348704197385,0.5242229351943772,0.06534118968178039,0.9832320350394068,0.004307346715281267,0.026184082031090183,0.048156738280956075,0.017211914062394945,0.09082031249944568,0.12414550781174227,0.21142578124870956,0.06781005859333612,0.09460449218692257,0.23901367187354117,0.08062744140575788,0.1117528674413195,0.12364899669971127,0.002791566784709021,TazeYaprak
192.86787277090127,3.058786894917523,0.722454142720526,0.394447435345119,0.9765263057028067,0.15559600896491743,0.013366699218668416,0.023010253906109557,0.008850097656195982,0.057678222655897955,0.07104492187456637,0.1677246093739763,0.03527832031228468,0.05645751953090541,0.5322875976530012,0.03430175781229064,0.08540614566029034,0.1306989192933342,0.00436473420681129,TazeYaprak
187.75393676568524,2.9321430439735727,0.734947699038041,0.39397265236789736,0.9754957819239298,0.15523642194569276,0.011962890624926984,0.021301269531119986,0.010070800781188532,0.0562133789059069,0.06420898437460809,0.17950439453015438,0.03131103515605889,0.06054687499963045,0.529357910153019,0.03552246093728319,0.0865135311567813,0.1299685583102926,0.00386589013203704,TazeYaprak
190.90361160409867,3.1540981597588136,0.6570066777494029,0.11294225208401316,0.974657965980296,0.012834082551542954,0.0191040039061334,0.030456542968564107,0.01062011718743518,0.07452392578079514,0.07049560546831972,0.23815917968604638,0.0408935546872504,0.08135986328075341,0.3824462890601657,0.051940917968432976,0.10948989020661097,0.12565723898555214,0.0026579485967057445,TazeYaprak
191.55340014976957,3.3792849109135625,0.6239047706013752,0.10309358580159705,0.9782676620531939,0.010699138148973301,0.02050781249987483,0.03472900390603803,0.01281738281242177,0.07391357421829886,0.0817871093745008,0.23651123046730643,0.048278808593455326,0.08343505859324075,0.34893798827912026,0.05908203124963939,0.11058526204955435,0.12469433661834826,0.002578430630289457,TazeYaprak
196.0629115984807,3.9304609273281033,0.548515762796685,0.0789597226582282,0.9835687074063868,0.006279746389896296,0.024291992187351733,0.04095458984350003,0.018737792968635633,0.0888671874994576,0.10430908203061334,0.22839355468610598,0.056701660155903916,0.0850830078119807,0.2791137695295464,0.0735473632808011,0.10899025690748325,0.12609084687576705,0.002847650027609011,TazeYaprak
232.14296635234635,5.50147964749064,0.4845203514565987,0.1968704108379031,0.9837804976250425,0.03877841976953643,0.03796386718726828,0.046203613280967996,0.026428222656088695,0.07873535156201944,0.10894775390558503,0.16845703124897182,0.047851562499707935,0.0728759765620552,0.327026367185504,0.08551025390572808,0.1155788011802923,0.12008046670948577,0.0022542668715103305,TazeYaprak
232.2215882009964,5.702234232593568,0.47321885193368673,0.18222785692966198,0.9843874210922352,0.03322009673747503,0.03515624999978542,0.04467773437472731,0.025695800781093164,0.0815429687495023,0.129760742186708,0.1737670898426894,0.04833984374970496,0.08081054687450677,0.30358886718564704,0.0766601562495321,0.11445807059304296,0.12114919662834696,0.002326827701818834,TazeYaprak
239.13979901788724,6.849335218201716,0.3602670336227913,0.038573785358884116,0.9779497912332966,0.0015052903791348089,0.03833007812476605,0.06030273437463194,0.02893066406232342,0.10986328124932944,0.17297363281144423,0.18652343749886155,0.07104492187456637,0.09082031249944568,0.14654541015535555,0.0946655273431722,0.11845534159561201,0.11724380502546324,0.0016941769686276387,TazeYaprak
188.25855759133475,4.028980577492387,0.5499893845756594,0.08333234541723496,0.9812782721762537,0.006995950650261253,0.025878906249842046,0.040100097656005244,0.01660156249989867,0.08813476562446207,0.10876464843683614,0.2208251953111522,0.05383300781217143,0.08990478515570126,0.28228759765452704,0.07366943359330036,0.11044229780661007,0.12482097829025843,0.0028292082077082097,TazeYaprak
159.7379574446646,3.2571561705623187,0.6149118352745581,0.10019324633298947,0.9757961904599468,0.01011197482040725,0.018432617187387496,0.033813476562293616,0.01281738281242177,0.07495117187454253,0.10449218749936223,0.24023437499853373,0.047424316405960544,0.08215332031199857,0.3319702148417238,0.05371093749967217,0.10869736899846624,0.12634341985112058,0.002839134944243109,TazeYaprak
160.72777174460637,3.29104529302807,0.598072144987042,0.09075960698176815,0.9767119936977318,0.008302555230278591,0.018676757812386004,0.03131103515605889,0.013793945312415809,0.08306884765574299,0.1126708984368123,0.24633789062349645,0.050659179687190796,0.07769775390577577,0.3093872070293616,0.05639648437465578,0.10995036368768447,0.12525452204250614,0.0026621502462405395,TazeYaprak
162.84860853315448,3.230135741521464,0.632032924346424,0.10932208954518345,0.977065073111321,0.012029618996102054,0.01806640624988973,0.02868652343732491,0.01202392578117661,0.07586669921828694,0.0853271484369792,0.24694824218599273,0.04241943359349109,0.08184814453075044,0.3566284179665733,0.052185058593431484,0.10996864396689786,0.12523847296621599,0.002694088592180655,TazeYaprak
174.58424097316998,4.078925431288338,0.5295426186253728,0.07928828920051736,0.9844279120542128,0.006326742003436261,0.030395507812314478,0.04071044921850152,0.019653320312380044,0.08538818359322883,0.11541748046804554,0.20562744140499495,0.05578613281215951,0.08404541015573702,0.2799682617170412,0.08300781249949336,0.11430043790191155,0.12129792934547051,0.002160839143583758,TazeYaprak
267.23273320766987,7.385234864219937,0.31931253952779,0.03543553435336995,0.9798480264532865,0.001267496715929591,0.03918457031226084,0.06500244140585325,0.03521728515603505,0.10644531249935031,0.18939208984259404,0.17980957031140252,0.07434082031204625,0.08544921874947846,0.12213134765550457,0.10302734374937117,0.12060200224971311,0.11503449404857918,0.0017536370966662424,TazeYaprak
251.61870662414347,7.131127477098879,0.41994691089783115,0.21835194550740397,0.9782500851963497,0.04769355305639473,0.046203613280967996,0.0624389648433689,0.03015136718731597,0.06652832031209394,0.1199951171867676,0.1293334960929606,0.04693603515596352,0.07098388671831675,0.32788085937299877,0.0995483398431424,0.12453661954954208,0.11076284647813339,0.0014702641850489796,TazeYaprak
169.85506369059698,4.984682457646108,0.46219135623235463,0.06027239676240085,0.9798391918438666,0.0036524879558437525,0.042114257812242956,0.05944824218713715,0.026306152343589437,0.08984374999945163,0.10321044921812005,0.17980957031140252,0.05743408203089945,0.09484863281192109,0.24090576171727962,0.10607910156185255,0.12422431709304503,0.11111299118968038,0.0016133595392877887,TazeYaprak
195.1267408472338,5.4966808136740735,0.42908614995255734,0.05358424299970768,0.9779949452034737,0.0028892925299249224,0.05279541015592776,0.06072998046837933,0.02819824218732789,0.08880615234320796,0.09362792968692854,0.17327880859269237,0.05383300781217143,0.09320068359318115,0.22814941406110748,0.12738037109297254,0.12503652188975914,0.11019821215388168,0.0015501848593142706,TazeYaprak
156.87724532480397,3.9390093155186277,0.5224948658535181,0.06784574278594263,0.9774473086934261,0.004648865122090802,0.03326416015604697,0.049255371093449365,0.018920898437384516,0.08459472656198368,0.09771728515565357,0.21527099609243608,0.053222656249675156,0.09228515624943673,0.2587890624984205,0.09667968749940992,0.12218467151322249,0.11335203490283167,0.001501224086796929,TazeYaprak
134.73025187066028,3.0845651417865287,0.5983913256263251,0.07863282617244184,0.973177470752455,0.006246341171390335,0.024230957031102104,0.0426635742184896,0.01324462890616916,0.08282470703074447,0.0784301757807713,0.2357788085923109,0.05731201171840019,0.09472656249942184,0.2939453124982059,0.07684326171828099,0.12240898542935005,0.1131097610995391,0.001371746324836662,TazeYaprak
129.1214760437333,2.874392229253204,0.6403493279276169,0.0993631000454796,0.9727789668839897,0.00995221724212086,0.01947021484363116,0.03656005859352685,0.013671874999916553,0.07464599609329439,0.07006835937457233,0.24096679687352923,0.047119140624712404,0.08813476562446207,0.3477172851541277,0.061645507812123745,0.11692376221230828,0.11877125746223731,0.0018189048208007608,TazeYaprak
118.3094256657262,2.7295377793880475,0.6531424996970917,0.10956669965742061,0.9730441782642022,0.012100987192596554,0.019836425781128927,0.03149414062480777,0.010803222656184061,0.07684326171828099,0.07104492187456637,0.23663330077980568,0.04626464843721762,0.08551025390572808,0.360778808591548,0.060791015624628957,0.11768491836570424,0.11801710790620179,0.0017062993516942227,TazeYaprak
130.05400465097784,2.9869876028814373,0.6415273810509394,0.11179099038464788,0.973803526227263,0.01258310625634366,0.021789550781117006,0.036193847656029086,0.01159667968742922,0.07135009765581452,0.06439208984335698,0.23083496093609107,0.04962158203094713,0.08526611328072957,0.36273193359153605,0.06622314453084581,0.11748988192402884,0.11821127447931469,0.0018919627710227845,TazeYaprak
132.2824562172563,3.285891896002526,0.6102373426981901,0.09768591450521125,0.9761138927660563,0.009602633357014171,0.02368164062485546,0.038452148437265306,0.013305664062418789,0.07995605468701199,0.07122802734331525,0.2264404296861179,0.04675292968721464,0.0913085937494427,0.3353881835917029,0.07348632812455147,0.1202507446627419,0.11540162987275475,0.0015544717860081988,TazeYaprak
132.98467349669113,3.6217327629967633,0.5416920471578573,0.07774010012551484,0.982078358262698,0.0060919804089786915,0.03228759765605293,0.049133300780950115,0.015808105468653515,0.08782958984321393,0.09191894531193896,0.2117919921862073,0.056274414062156525,0.09460449218692257,0.2718505859358407,0.08850097656195983,0.11947673856408697,0.11620278271355876,0.0018049838690682295,TazeYaprak
271.31557033817353,6.453330012128702,0.3982490397220279,0.04144962313892067,0.9759014116687215,0.0017313734593352235,0.03668212890602611,0.06347656249961257,0.028076171874828637,0.10736083984309472,0.14727783203035108,0.18499755859262085,0.07080078124956786,0.09136962890569232,0.16381835937400013,0.10614013671810217,0.12215863866104132,0.11338008982414373,0.001746131687946696,TazeYaprak
243.62529474277864,6.0102150048049605,0.4163938710700365,0.04775466577709423,0.9773299722341194,0.002299518316095808,0.03668212890602611,0.06475830078085475,0.026306152343589437,0.1006469726556357,0.14611816406160816,0.1784667968739107,0.06121826171837635,0.09771728515565357,0.17907714843640699,0.10900878906183466,0.12113285267458135,0.11447536753193478,0.0017042105461304205,TazeYaprak
267.7126565503167,6.132572007331494,0.39699725712969414,0.046109554867508604,0.9741044227001989,0.0021563034995373247,0.04156494140599631,0.05651855468715503,0.029235839843571556,0.10638427734310067,0.14367675781162306,0.2057495117174942,0.06964111328082494,0.09167480468694046,0.1508789062490791,0.10467529296811111,0.12010484958189299,0.11555346327617196,0.0018460865828945538,TazeYaprak
160.54525391472703,3.674295547809839,0.5528907192829282,0.07344011849915456,0.9767223869226213,0.005444551722906816,0.029235839843571556,0.0513305664059367,0.018676757812386004,0.0822143554682482,0.09246826171818562,0.20745849609248376,0.053894042968421055,0.09826660156190023,0.2720336914045896,0.0944213867181737,0.11882069326563134,0.11687352403529712,0.001898191989213889,TazeYaprak
129.14068578918457,2.953980407960819,0.6180353470393268,0.0990506882558993,0.972684730745009,0.009881452418171743,0.023803710937354713,0.040405273437253385,0.015319824218656495,0.07409667968704775,0.074218749999547,0.22943115234234965,0.049682617187196756,0.0913085937494427,0.32879638671674316,0.07293701171830483,0.11822840702893642,0.11747264166592015,0.0017919384245705067,TazeYaprak
119.82008835502059,2.757709206824656,0.6471746752725629,0.11199343130566167,0.9693910538043261,0.012627247121742216,0.022094726562365143,0.03558349609353281,0.013366699218668416,0.07379150390579961,0.06359863281211182,0.231506347654837,0.04168701171849556,0.08837890624946057,0.3651123046852715,0.064880371093354,0.11409833144134034,0.12148805920700939,0.0023194472752191293,TazeYaprak
119.32192135478036,3.1058707820540596,0.6028161977589018,0.09730650623590778,0.974189542521323,0.009528049320931948,0.027343749999833106,0.03808593749976754,0.0166625976561483,0.07714843749952913,0.07446289062454552,0.21740722656117303,0.04809570312470644,0.09014892578069977,0.33563232421670147,0.07501220703079216,0.12089964033152237,0.11472164022950065,0.0015483739636755667,TazeYaprak
111.60253306834807,3.6477631275575053,0.510363521847829,0.07128458054902921,0.982886702391675,0.005115309226212762,0.03613281249977946,0.047424316405960544,0.022521972656112537,0.08654785156197176,0.10021972656188831,0.2061767578112416,0.05145263671843595,0.08953857421820349,0.26159667968590333,0.09838867187439948,0.12275772307332038,0.11273118110708971,0.0016779650114900103,TazeYaprak
120.36861204972602,4.047015469030947,0.4523255522076871,0.05644798480835926,0.9813868477751427,0.0032043767029189003,0.04064941406225189,0.05676269531215355,0.026611328124837578,0.08874511718695834,0.12316894531174823,0.1842041015613757,0.06158447265587411,0.09674072265565954,0.20892333984247483,0.11260986328056267,0.12301392301958558,0.1124515562876211,0.001763948694055782,TazeYaprak
301.43077177560554,7.56992838985656,0.40004270274827713,0.054012099517032536,0.9739756289261133,0.002947904636896693,0.04125976562474817,0.06054687499963045,0.027404785156082734,0.09936523437439351,0.1273193359367229,0.19635009765505157,0.0731201171870537,0.09429931640567443,0.17895507812390773,0.10137939453063123,0.12436277503019266,0.11095800086435377,0.0014565857723230968,TazeYaprak
299.1922273883639,7.223069543795207,0.3903729203188698,0.051833937788080355,0.9762791594029625,0.0027169890637582118,0.03808593749976754,0.05664062499965429,0.030944824218561127,0.1006469726556357,0.1417846679678846,0.20703124999873637,0.07427978515579663,0.08654785156197176,0.1630859374990046,0.10095214843688383,0.12687892751872837,0.10807180724809687,0.001105290137872647,TazeYaprak
282.04800214288036,6.690635607833594,0.41258473958493114,0.047611270682754586,0.974991991471263,0.0023013505259692774,0.03472900390603803,0.05371093749967217,0.027282714843583477,0.09210205078068785,0.14605712890535852,0.23828124999854564,0.07781982421827502,0.08380126953073852,0.15496826171780415,0.09124755859319307,0.12088015857297227,0.11474216762964488,0.0015480703345087446,TazeYaprak
266.5379133180167,5.58590092961431,0.43474132610464944,0.04558339757919185,0.9739988411954759,0.0021240362370987427,0.02917480468732193,0.05126953124968708,0.022766113281111045,0.09606933593691364,0.1504516601553317,0.2691040039046075,0.07757568359327652,0.08093261718700602,0.1420288085928831,0.08062744140575788,0.11637573407040283,0.11930828256216684,0.001958884591809546,TazeYaprak
201.8179236788167,4.0266509712706675,0.592969116843896,0.10084840446751486,0.9821220979847117,0.010218928481879691,0.02270507812486142,0.03521728515603505,0.017333984374894203,0.08367919921823926,0.09826660156190023,0.19567871093630565,0.048583984374703466,0.08068847656200752,0.3569335937478214,0.060913085937128214,0.10940340858811172,0.12573254135186734,0.0030028126586024587,TazeYaprak
219.00585162498353,4.40475049309467,0.52144345348993,0.08300159011657345,0.9817581191847189,0.006954697633791524,0.023559570312356202,0.043212890624736246,0.0204467773436252,0.1006469726556357,0.1253051757804852,0.21691894531117603,0.07348632812455147,0.09259033203068487,0.2290649414048519,0.07476806640579364,0.11697953822821552,0.11871632324153551,0.0020667726264648445,TazeYaprak
185.1207324055274,3.7239190181505153,0.5989406312660482,0.09318469089947765,0.9787224050425828,0.008742805164553813,0.028320312499827145,0.033813476562293616,0.015136718749907612,0.07916259765576683,0.07812499999952316,0.21252441406120284,0.04583740234347023,0.08947753906195387,0.34521484374789296,0.07238769531205817,0.11465222023741933,0.12096547508404701,0.0022057535676993385,TazeYaprak
231.52332076539267,5.260554552359048,0.4473969615657691,0.049948387995923535,0.9774497462838696,0.002533319862199656,0.028320312499827145,0.04992675781219527,0.02453613281235024,0.0915527343744412,0.14453124999911784,0.2510375976547178,0.06677246093709245,0.08514404296823032,0.1713256835927043,0.08685302734321988,0.12063229996908605,0.11500272158944948,0.0016312906335120257,TazeYaprak
130.2049456481723,3.1338794591651427,0.5798435899389669,0.09385516817329632,0.9775762489053704,0.008886604051698365,0.0191040039061334,0.02868652343732491,0.01373291015616618,0.08386230468698815,0.12841796874921618,0.2443847656235084,0.0562133789059069,0.08197021484324969,0.28540039062325806,0.058227539062144604,0.11417481448564239,0.1214161830442579,0.002175163035453424,TazeYaprak
147.65574491695833,2.9480076889841182,0.6343176437309246,0.10682127490565846,0.9724166590026537,0.011502618284586536,0.02001953124987781,0.03063964843731299,0.01159667968742922,0.08892822265570723,0.07226562499955892,0.24298095702976696,0.05566406249966025,0.09240722656193599,0.3255004882792633,0.0599975585933838,0.11635514805570982,0.11932835911560172,0.002064748362355423,TazeYaprak
128.2347434890183,3.3682675373163056,0.5250473315805732,0.0610011268245603,0.9865665722586839,0.003758283229417907,0.023803710937354713,0.0364379882810276,0.018188476562388985,0.08746337890571616,0.12518310546798594,0.2755126953108184,0.05981445312463492,0.0755615234370388,0.23162841796733624,0.06640624999959469,0.11271081715849647,0.12277642063143085,0.002380746186300716,TazeYaprak
137.7316476000149,3.785007183295587,0.48480788071636977,0.05218588811244969,0.9860148287860548,0.002751749332231954,0.028625488281075282,0.04534912109347321,0.022949218749859928,0.08905029296820648,0.12402343749924302,0.25238037109220957,0.06201171874962151,0.08294677734324372,0.21209716796745545,0.08056640624950825,0.1171845932730927,0.11851391845424308,0.0020224424736869115,TazeYaprak
271.63853310128655,5.606091778589748,0.4726032794749405,0.10468470259221617,0.9817946921761946,0.010978353322729796,0.042358398437241464,0.04632568359346725,0.02655029296858795,0.08642578124947249,0.08874511718695834,0.1870727539051082,0.05059814453094117,0.08581542968697622,0.29168701171696965,0.0944213867181737,0.11982441997940854,0.11584423224376293,0.0019603091604624623,TazeYaprak
200.8122523627867,3.6415904823997005,0.5736012213288993,0.0668903814484171,0.9806584369793065,0.004529109409168726,0.020568847656124458,0.03588867187478095,0.015380859374906122,0.08074951171825714,0.10528564453060739,0.2699584960921023,0.06182861328087263,0.07873535156201944,0.2728881835920844,0.05871582031214163,0.10752644489543114,0.127341436364778,0.00270516456712517,TazeYaprak
223.72389370950359,5.852915967550527,0.5232395042540476,0.08001890231918754,0.970821775443391,0.00647058123508708,0.026855468749836086,0.045471191405972465,0.02099609374987185,0.07849121093702092,0.10235595703062526,0.20062255859252548,0.04431152343722954,0.0846557617182333,0.321777343748036,0.07446289062454552,0.11905008522276733,0.11663985158627736,0.001522398009490618,TazeYaprak
234.85715365180522,6.582670141902564,0.5307456507442168,0.20870647294185551,0.9686793765458098,0.04357178217241713,0.03356933593729511,0.047119140624712404,0.027160644531084223,0.07971191406201347,0.07635498046828396,0.1570434570302915,0.045471191405972465,0.07940673828076533,0.37585449218520595,0.07830810546827204,0.12490550463077674,0.11034669312375725,0.001019501309825524,TazeYaprak
138.84686950233203,3.4758653618869237,0.6360713277768129,0.11087737392062083,0.9615569833565658,0.012360595032344695,0.015319824218656495,0.03735351562477201,0.011291503906181081,0.06884765624957978,0.08795166015571318,0.21282958984245098,0.044738769530976934,0.07336425781205222,0.394531249997592,0.0537719726559218,0.11988077596340245,0.11578591159742768,0.001271797599120181,TazeYaprak
167.01954662893672,4.074746114335903,0.6182694118070498,0.11042975876954816,0.9546442873676333,0.012288979896985118,0.018432617187387496,0.04003906249975562,0.014526367187411338,0.06518554687460214,0.0793457031245157,0.216430664061179,0.04290771484348811,0.07543945312453955,0.3853759765601478,0.062316894530869645,0.12154652929632445,0.11403604248731299,0.0011972033593694764,TazeYaprak
272.39732779465595,7.5477345251562955,0.4298189614998722,0.06274412302777865,0.966415906554636,0.003966934136252009,0.032531738281051444,0.052917480468427015,0.032104492187304046,0.1006469726556357,0.12811279296796804,0.1864013671863623,0.0637817382808607,0.08648681640572212,0.22735595702986233,0.08966064453070276,0.12974389843087067,0.10461500174896624,0.0007396844237628719,TazeYaprak
173.13289835563944,4.421625909657989,0.6037759849186077,0.10543597315320608,0.9708466798363933,0.01121459105041333,0.020141601562377064,0.0408935546872504,0.01348876953116767,0.06298828124961554,0.08966064453070276,0.21160888671745842,0.039978027343505994,0.07318115234330333,0.38586425781014483,0.06219482421837039,0.11447389187195012,0.12113424721289605,0.0019563201926674025,TazeYaprak
170.88625156937724,5.089718538811956,0.5345308240171204,0.08673139565387589,0.9795004684388419,0.007585196859286027,0.024719238281099124,0.04345703124973476,0.022766113281111045,0.07434082031204625,0.10595703124935328,0.20416259765500389,0.04876708984345235,0.07580566406203731,0.33032226562298383,0.06970214843707456,0.11976169379899927,0.11590907845063944,0.0016439071857693747,TazeYaprak
199.5632620444938,6.289306262206141,0.40465734841097245,0.04996548641938872,0.9814323096925619,0.0025223866429408977,0.03875732421851344,0.05493164062466472,0.033630371093544734,0.09747314453065507,0.12658691406172737,0.19409179687381534,0.06811523437458425,0.08367919921823926,0.20312499999876021,0.09960937499939203,0.1323641416676707,0.10127937485854759,0.0006374897305812815,TazeYaprak
149.28866155779153,4.282955124503901,0.5490939719638095,0.09151586454824946,0.9775730486022758,0.008446159869535464,0.024841308593598378,0.045166015624724325,0.020690917968623712,0.08038330078075938,0.09655761718691065,0.21252441406120284,0.05072021484344043,0.08380126953073852,0.31475830077932887,0.07055664062456936,0.12184582018810317,0.11371619881290197,0.0013102553210892363,TazeYaprak
170.24789490203815,4.229391255657406,0.6012540184038291,0.12180842266795902,0.9716432460009248,0.014915225361397456,0.020141601562377064,0.03735351562477201,0.014160156249913573,0.0626831054683674,0.09423828124942481,0.21368408202994577,0.03680419921852536,0.06951904296832569,0.38964843749762174,0.061767578124622996,0.11732763302173836,0.11837231221275611,0.001597092986842498,TazeYaprak
183.8447432129227,5.111282472564789,0.5763676342121286,0.22926119895810193,0.9775025426780999,0.05258101405677255,0.022521972656112537,0.03680419921852536,0.02026367187487632,0.06530761718710139,0.1166381835930381,0.16961669921771474,0.03948974609350897,0.06518554687460214,0.40698242187251593,0.05718994140590094,0.11215239833580688,0.12328672805864052,0.0021336935697649955,TazeYaprak
246.93636910320595,7.176624427467359,0.44201565532656795,0.060255428234734204,0.9701111113810718,0.003679719100689185,0.028808593749824165,0.05590820312465876,0.03234863281230256,0.09454345703067295,0.12945556640545985,0.19317626953007094,0.0637817382808607,0.08862304687445909,0.22857666015485487,0.08477783203073255,0.12997370940895805,0.10432934694202599,0.0007785025720036795,TazeYaprak
328.8492095226477,11.98258268782186,0.1119184035416899,0.014636315130847871,0.9092256263084926,0.0002146135397941696,0.07617187499953508,0.08526611328072957,0.06640624999959469,0.10797119140559099,0.16406249999899863,0.11346435546805746,0.07708740234327949,0.08166503906200155,0.08294677734324372,0.14495849609286524,0.1543284831355878,0.06293248022165507,-9.754543186480963e-06,TazeYaprak
147.04814345957544,6.0922589696743925,0.22569684001167373,0.029159668764338377,0.8415331310176637,0.0008504530194240807,0.12182617187425643,0.1062011718743518,0.048156738280956075,0.05187988281218335,0.0488891601559516,0.06298828124961554,0.061889648437122254,0.11218261718681528,0.15838623046778327,0.22760009765486083,0.1555888037110037,0.05974865633087131,4.976618949920896e-05,yaprak
133.83236268426288,5.621040589737572,0.22523932442902642,0.031821216596172604,0.8788752239518538,0.0010127581281909486,0.12280273437425046,0.10162353515562973,0.05187988281218335,0.05145263671843595,0.05145263671843595,0.05889892578089051,0.06274414062461704,0.10919189453058355,0.15881347656153066,0.2311401367173392,0.15396117694204814,0.0638258080073323,0.0001144533508341137,yaprak
139.99158239332954,6.08537695591037,0.21447660521132172,0.02714450498509704,0.9158990243159171,0.0007369558467343356,0.1242065429679919,0.10192871093687787,0.047119140624712404,0.04937744140594862,0.05236816406218037,0.06463623046835548,0.06634521484334506,0.1062011718743518,0.16003417968652323,0.22778320312360972,0.15426944680271845,0.06307706046177974,8.195839377861099e-05,yaprak
105.55528340354024,5.599639648498197,0.2170929387756359,0.03149817337530761,0.8554741642236808,0.0009922865693031257,0.1255493164054837,0.1037597656243667,0.05090332031218931,0.048828124999701975,0.049499511718447874,0.0599975585933838,0.06097412109337784,0.10791015624934136,0.1617431640615128,0.23083496093609107,0.1576870741637926,0.053968179657463144,2.0884354068125674e-05,yaprak
82.73908265004226,4.691960133920335,0.24002686064578826,0.03217604018539035,0.8787549108803501,0.001035495087735262,0.1188964843742743,0.10845947265558802,0.052612304687178875,0.055297851562162485,0.051086425780938194,0.05871582031214163,0.062316894530869645,0.11279296874931156,0.15637207031154557,0.22344970702988617,0.1581653733256301,0.052549904421422065,2.9741526347371567e-05,yaprak
107.94814222441408,5.551939635129386,0.20496764594072478,0.029841723194731613,0.9054644201353775,0.0008906197104676551,0.1255493164054837,0.10937499999933242,0.0513305664059367,0.04895019531220123,0.05212402343718186,0.05908203124963939,0.06152343749962449,0.10717773437434583,0.15881347656153066,0.22607421874862013,0.1575792665801004,0.05428215653368442,4.726474736155202e-05,yaprak
172.1241759553928,6.1397922366159445,0.21279171871529817,0.029051946928668637,0.8880637600584029,0.0008441898574109209,0.12292480468674973,0.10498046874935925,0.050781249999690053,0.049682617187196756,0.052246093749681116,0.061767578124622996,0.06042480468713119,0.10778808593684211,0.1586914062490314,0.23071289062359182,0.15206768704908596,0.06821434107553834,0.00017840680210522129,yaprak
122.49659616897894,5.566319425607731,0.2152546133785291,0.032022099685307066,0.851216467662894,0.001025503062966006,0.12628173828047923,0.10656738281184956,0.05212402343718186,0.04766845703095905,0.04522705078097396,0.05566406249966025,0.060791015624628957,0.1088867187493354,0.16467285156149492,0.23211669921733327,0.1560147454932203,0.05862744205694478,8.216136123734204e-05,yaprak
153.7174050090362,6.318093210405353,0.21148759076297774,0.029711342557134177,0.833668931543102,0.0008828451471380105,0.12969970703045838,0.1029052734368719,0.046203613280967996,0.049255371093449365,0.04736328124971092,0.06146240234337486,0.06146240234337486,0.10748291015559397,0.16430664062399714,0.22985839843609704,0.15592122365750774,0.05887571474683939,2.2704084285029837e-05,yaprak
157.12124802375257,6.242068827887795,0.21683581956426964,0.03209824102089697,0.8131376542529554,0.0010303906879860231,0.1279907226554688,0.10632324218685105,0.04675292968721464,0.04724121093721166,0.05181884765593372,0.058959960937140135,0.05908203124963939,0.1137695312493056,0.16076660156151876,0.2272949218736127,0.15538284458958668,0.0602822476431309,5.456921300470364e-05,yaprak
109.55666787115328,5.851101858453852,0.20622913028463052,0.029202945891607497,0.8835015041762342,0.0008529509167893516,0.12744140624922215,0.10650634765559994,0.05084228515593968,0.046569824218465755,0.04943847656219825,0.058654785155891995,0.05810546874964535,0.10607910156185255,0.16326904296775346,0.2330932617173273,0.1569499175171319,0.05607585188807492,6.888995013563567e-05,yaprak
130.14343631812932,6.06007836234439,0.2009233496677354,0.027040148595362003,0.8957463960953123,0.0007312436966342337,0.12719726562422365,0.10626220703060142,0.04919433593719974,0.05139160156218633,0.050537109374691545,0.06121826171837635,0.05578613281215951,0.10925292968683317,0.15893554687402991,0.23022460937359482,0.15656849910118276,0.057132152618794715,5.1992628438811535e-05,yaprak
113.46595502957148,5.5162778177120195,0.22034775828400444,0.03243521837183118,0.8431042949654708,0.0010521903510482507,0.12493896484298743,0.10650634765559994,0.051513671874685585,0.04907226562470048,0.047302246093461287,0.05859374999964237,0.06127929687462598,0.10974121093683019,0.1615600585927639,0.2294921874985993,0.15785807998378473,0.053465917720440403,3.354984777148056e-05,yaprak
136.05379867010353,5.37998495528256,0.2296824034924343,0.03229329461101188,0.8630981727817585,0.0010429949639764778,0.12493896484298743,0.10339355468686894,0.05041503906219229,0.05212402343718186,0.049560546874697506,0.0599975585933838,0.06152343749962449,0.10546874999935626,0.16223144531150982,0.23034667968609407,0.15361835316248393,0.06464657256659637,0.0001928581790440832,yaprak
106.86895946839213,5.27210074342035,0.227468517988778,0.03297803353140535,0.8609731931906133,0.001087691162960613,0.12194824218675568,0.1071166992180962,0.05041503906219229,0.05114746093718782,0.048156738280956075,0.06030273437463194,0.061767578124622996,0.10437011718686297,0.16229248046775943,0.23248291015483102,0.15606466994623555,0.05849441484331138,0.00010790472794587878,yaprak
143.78390183734177,6.147680299266993,0.21520721579872443,0.027950531717568346,0.8827648470010284,0.0007813084019997213,0.1279907226554688,0.10498046874935925,0.04876708984345235,0.047119140624712404,0.051635742187184835,0.06042480468713119,0.06030273437463194,0.1057739257806044,0.16320800781150385,0.22979736327984743,0.15435092576743756,0.06287741635992068,7.657214198309424e-05,yaprak
142.9355621328495,5.77305326876292,0.22230395816383425,0.029851609623292284,0.8786054513828219,0.0008912703218890572,0.1197509765617691,0.10900878906183466,0.051513671874685585,0.05072021484344043,0.050537109374691545,0.06292724609336592,0.06347656249961257,0.10498046874935925,0.1617431640615128,0.2253417968736246,0.15145095426789362,0.0695728842601472,0.0001522685816750171,yaprak
119.88718932125909,6.003187678250503,0.18099071428008495,0.03108731825013098,0.8568390692779482,0.000966531546040833,0.1379394531241581,0.10870361328058652,0.047180175780962036,0.041137695312248916,0.03839111328101568,0.05187988281218335,0.05407714843716994,0.10784912109309173,0.17059326171770878,0.24224853515477143,0.15774411417898826,0.05380122875201499,0.00012566323252977677,yaprak
126.03770697385741,5.6225500263502015,0.21950054267243174,0.030081499853497597,0.8623655676813698,0.0009050915990938112,0.11962890624926983,0.10974121093683019,0.050537109374691545,0.05297851562467664,0.053466796874673664,0.06634521484334506,0.0666503906245932,0.10815429687433988,0.15344238281156344,0.219055175779913,0.15489386863091884,0.06152777611761158,8.199513449080092e-05,yaprak
118.29484110531283,5.706388240901649,0.2187471828270776,0.03007227619743454,0.862931883183866,0.0009045323639228876,0.1251220703117363,0.10455322265561186,0.04937744140594862,0.04992675781219527,0.05102539062468856,0.061889648437122254,0.06463623046835548,0.10583496093685403,0.15893554687402991,0.22869873046735412,0.15700665312128795,0.055916801136979846,4.392865369588732e-05,yaprak
135.79072439395517,5.716069221201076,0.23259289529930754,0.028939785314930196,0.906641365000444,0.0008376483362703459,0.12152099609300829,0.10296630859312154,0.05395507812467068,0.05364990234342255,0.05059814453094117,0.06323242187461406,0.06317138671836443,0.10607910156185255,0.1629028320302557,0.22192382812364547,0.15250356193903927,0.06723422765900079,0.00013937502715278242,yaprak
122.5624978203125,5.491363092101294,0.23112826303974424,0.03314133070539177,0.8146491447181771,0.0010985070476327047,0.12603759765548073,0.09960937499939203,0.05041503906219229,0.05047607421844191,0.05285644531217739,0.06317138671836443,0.06408691406210884,0.1071166992180962,0.1590576171865292,0.22717285156111344,0.1560883450376295,0.0584312101280856,6.93249718914703e-05,yaprak
121.26299786584435,5.718946777737435,0.22132653706932978,0.030124417120011574,0.8567362057851367,0.0009077261505135463,0.1197509765617691,0.10382080078061633,0.05364990234342255,0.05242919921842999,0.05426025390591882,0.06018066406213268,0.06225585937462002,0.10589599609310366,0.1595458984365262,0.22821044921735711,0.15461504715803528,0.062225115233198174,6.221369564921248e-05,yaprak
101.82554279171431,5.229908811380227,0.2295190557845478,0.03409597796644834,0.8253256225189712,0.0011627283065778196,0.12432861328049115,0.10614013671810217,0.05316162109342552,0.04974365234344639,0.04748535156221017,0.05847167968714311,0.06097412109337784,0.11175537109306789,0.160888671874018,0.2270507812486142,0.1569422991895361,0.05609717014968724,6.11311130564503e-05,yaprak
152.01605003992103,5.841529378371469,0.2345895313603323,0.03289102439487611,0.8880820650116251,0.0010820500928025183,0.11718749999928474,0.11077880859307386,0.04962158203094713,0.048828124999701975,0.05541992187466174,0.06286621093711629,0.06140136718712523,0.1088867187493354,0.1610717773427669,0.22393798827988318,0.15075733033034328,0.07106338807346074,0.00018126789097081125,yaprak
136.79935887997533,6.083161299135277,0.2189571704759468,0.030885332516994213,0.859982826459864,0.0009539784900185258,0.12811279296796804,0.1044311523431126,0.0488891601559516,0.04626464843721762,0.04937744140594862,0.059631347655886034,0.0568847656246528,0.10913085937433391,0.1655273437489897,0.2317504882798355,0.1546043534550756,0.06225168002661003,8.191201353095539e-05,yaprak
155.4131850529405,6.093247459932606,0.2195795316884589,0.03190721550001807,0.8057193771400617,0.0010181957668743235,0.12567138671798295,0.10522460937435775,0.04986572265594564,0.049316406249699,0.050231933593443405,0.05810546874964535,0.06127929687462598,0.10827636718683913,0.1630859374990046,0.22894287109235265,0.1548873373740588,0.06154421576990361,7.039003269599367e-05,yaprak
165.23529277137445,6.348483443060832,0.2036454164401294,0.029709181065719983,0.8025618987432546,0.0008826759293708977,0.13269042968669012,0.1037597656243667,0.04626464843721762,0.04693603515596352,0.04846191406220421,0.05804443359339572,0.06127929687462598,0.10852050781183764,0.1610717773427669,0.23297119140482805,0.15500602733322708,0.061244667227979104,7.693492941819617e-05,yaprak
180.52921743735118,6.637725162169284,0.2041208735304494,0.025809896936553695,0.8907776922943853,0.0006662408989081238,0.12054443359301426,0.10180664062437862,0.05230712890593074,0.05645751953090541,0.052246093749681116,0.06396484374960959,0.0610961914058771,0.1088867187493354,0.15789794921778627,0.22479248046737796,0.1537610089182489,0.06430653084674502,0.00010087701405825704,yaprak
130.95947165722995,5.792643612631115,0.2154852163515425,0.030712225590942468,0.8371520748814502,0.0009433466157042012,0.12768554687422065,0.10369873046811706,0.049255371093449365,0.048522949218453834,0.04809570312470644,0.05920410156213864,0.06042480468713119,0.10870361328058652,0.16339111328025274,0.23101806640483996,0.1556683106220259,0.059541202889222655,8.20973303001586e-05,yaprak
151.7532981159783,6.48155447873412,0.20114081637320638,0.028626253829723336,0.8478995154222956,0.0008195422569054508,0.12896728515546285,0.10321044921812005,0.050109863280944154,0.0482177734372057,0.04724121093721166,0.055603027343410626,0.06042480468713119,0.11047363281182572,0.1630859374990046,0.2326660156235799,0.1560070258627729,0.05864798082470703,6.831599375773582e-05,yaprak
149.9538493842694,6.062223179134062,0.2102306934702618,0.028134612102623496,0.8968634878157536,0.000791657394210121,0.12445068359299041,0.10382080078061633,0.05395507812467068,0.049499511718447874,0.0537719726559218,0.06420898437460809,0.05731201171840019,0.11102294921807236,0.15814208984278477,0.22381591796738393,0.153659838135811,0.06454790405114777,0.00011102652192433572,yaprak
158.86306231207146,6.1383900892804,0.2154891632588762,0.02759729956426398,0.8964553239931304,0.0007617053068432365,0.12475585937423854,0.10351562499936819,0.04766845703095905,0.05041503906219229,0.050109863280944154,0.06115722656212672,0.06182861328087263,0.10797119140559099,0.15838623046778327,0.2341918945298206,0.1530854454193152,0.06589859007515597,0.00012478864879095344,yaprak
116.4682084676714,5.503607874403355,0.21578101928135435,0.030676275410151135,0.8581985703806536,0.000941160993822305,0.12158203124925791,0.10827636718683913,0.050659179687190796,0.0544433593746677,0.04907226562470048,0.05987548828088455,0.061645507812123745,0.10943603515558205,0.15795898437403588,0.2270507812486142,0.1567870353331485,0.05652966765288859,9.31530963730831e-05,yaprak
148.89378046725454,5.965998260121694,0.21418019834229013,0.03139434462835004,0.7974057522028197,0.0009857341897986757,0.12622070312422962,0.10083007812438458,0.05438232421841807,0.04992675781219527,0.053466796874673664,0.0655517578120999,0.059692382812135666,0.10302734374937117,0.160888671874018,0.22601318359237052,0.15447144414630734,0.06258075356440608,0.00011485279590714506,yaprak
180.6849444323974,6.663380983012166,0.21221002238791634,0.029667414896331304,0.7774297982328552,0.0008802950583308497,0.12384033203049413,0.1075439453118436,0.048828124999701975,0.04943847656219825,0.05126953124968708,0.05834960937464386,0.05834960937464386,0.11193847656181678,0.1613159179677654,0.2291259765611015,0.15463699427360778,0.062170553925986145,7.304972860128004e-05,yaprak
71.92902063538719,4.321951991560314,0.250848713928512,0.0392442747081884,0.9349092788400288,0.0015402172949661019,0.1275634765617214,0.10430908203061334,0.049316406249699,0.04608154296846874,0.04486083984347619,0.055847167968409134,0.060363769530881566,0.10803222656184062,0.16857910156147107,0.23504638671731537,0.15480409656597374,0.06175329513166826,0.00013725778178394753,yaprak
68.98683102835182,4.377685622558827,0.24664714626280082,0.03877104245668278,0.8958853183050035,0.001503300855119924,0.12542724609298445,0.10424804687436372,0.04962158203094713,0.04986572265594564,0.04675292968721464,0.05889892578089051,0.05810546874964535,0.11035156249932647,0.16387939453024974,0.2328491210923288,0.1564755943701038,0.0573861145228367,7.913616897948688e-05,yaprak
69.9521494668017,4.5304825062776235,0.2436785494177438,0.04100738801610285,0.8910629996430401,0.0016817289592940409,0.12744140624922215,0.10534667968685701,0.052490234374679624,0.04394531249973178,0.04168701171849556,0.05743408203089945,0.058959960937140135,0.10925292968683317,0.1706542968739584,0.23278808593607916,0.15906095202756285,0.04977339966584391,-2.8906015347684335e-06,yaprak
72.11547910596157,4.5735103501458205,0.2450372366352776,0.03795126970109877,0.9213525055108795,0.0014404289212954628,0.12475585937423854,0.10046386718688681,0.05212402343718186,0.04650878906221613,0.047851562499707935,0.06054687499963045,0.05908203124963939,0.10424804687436372,0.16705322265523037,0.23736572265480121,0.15479851022526328,0.061767297214955365,0.0001129433788186988,yaprak
87.94023502891176,4.6265810031621335,0.24833052609805276,0.0385174759968396,0.9053153935918518,0.0014837776735860037,0.12030029296801574,0.10437011718686297,0.05255126953092925,0.05303955078092627,0.049255371093449365,0.0610961914058771,0.06054687499963045,0.10705566406184658,0.16387939453024974,0.22790527343610897,0.1553218742776178,0.06043916895696153,0.00010094334267869132,yaprak
102.62850542888991,4.827937062124237,0.2493645708618174,0.03132945077656296,0.9281659898086806,0.000981694932860296,0.12603759765548073,0.10083007812438458,0.051086425780938194,0.04809570312470644,0.053222656249675156,0.06280517578086667,0.05834960937464386,0.10632324218685105,0.16467285156149492,0.22857666015485487,0.1505892722538951,0.07141882703039111,0.00025804265220781547,yaprak
118.11512539041263,5.386613277132938,0.2291375641351784,0.03142940396240112,0.957238826519666,0.0009879144700559123,0.12738037109297254,0.10546874999935626,0.052612304687178875,0.05236816406218037,0.05255126953092925,0.05694580078090243,0.055175781249663235,0.10699462890559695,0.1615600585927639,0.22894287109235265,0.15074795228209653,0.07108327970965331,0.00035510134616799707,yaprak
112.49069937593504,4.933485370877127,0.24883484880933068,0.031168986842812364,0.9390432146157948,0.0009715683456451993,0.12359619140549562,0.10705566406184658,0.04986572265594564,0.04907226562470048,0.05169677734343447,0.05761718749964833,0.05761718749964833,0.10870361328058652,0.1631469726552542,0.23162841796733624,0.1535536789834339,0.06480004200481188,0.00011284336617322875,yaprak
76.15489144650422,4.382813347658027,0.24978233713069958,0.03681779916672736,0.9306182198156107,0.0013556723392385529,0.12603759765548073,0.10412597656186447,0.049560546874697506,0.050781249999690053,0.051940917968432976,0.05908203124963939,0.058959960937140135,0.10412597656186447,0.16546630859274006,0.22991943359234668,0.15214677548565225,0.06803775776699242,0.00023240068456799556,yaprak
60.72899527830503,4.1774816518383915,0.25378722037301527,0.040229337805719946,0.9205369454895865,0.0016185131892743573,0.1275634765617214,0.10321044921812005,0.04876708984345235,0.0444335937497288,0.04492187499972582,0.054870605468415094,0.05834960937464386,0.11053466796807535,0.16711425781148,0.24023437499853373,0.15720859832686956,0.05534649388928312,5.754458582053336e-05,yaprak
109.63764487685674,5.1870335459422225,0.23571576959198776,0.03186654611137004,0.8985170599174042,0.0010155554116869719,0.12298583984299935,0.10516357421810812,0.04962158203094713,0.052612304687178875,0.05401611328092031,0.059692382812135666,0.060913085937128214,0.1072998046868451,0.16082763671776837,0.2268676757798653,0.15299614924555277,0.06610564339950156,0.00012854502029187697,yaprak
71.17200517604485,4.459398516453405,0.2523865295809372,0.047049651705860895,0.8899585939715948,0.0022139422881611976,0.12469482421798891,0.10272216796812303,0.047424316405960544,0.047546386718459795,0.045898437499719856,0.05877685546839125,0.05731201171840019,0.10870361328058652,0.16809082031147404,0.23883056640479228,0.1583760127231469,0.05191162074072591,2.736671731715086e-05,yaprak
78.04945696610498,4.454811112747348,0.25730786998029126,0.0437467247684485,0.9135514925474115,0.0019140522875722738,0.12005615234301723,0.10333251953061931,0.048583984374703466,0.05395507812467068,0.050659179687190796,0.05975341796838529,0.06072998046837933,0.10595703124935328,0.1661987304677356,0.23077392577984146,0.15467789164953782,0.06206873293569705,0.00010219023472550156,yaprak
117.9531045351244,5.420166242676508,0.2425852193211795,0.0412049688731199,0.9086225728034816,0.0016980854109182389,0.11737060546803361,0.0977783203119032,0.050781249999690053,0.05859374999964237,0.0599975585933838,0.06549072265585028,0.06219482421837039,0.10540771484310664,0.15924072265527806,0.22314453124863803,0.15493532759614653,0.061423302062984894,4.1349571978799394e-05,yaprak
75.78456700663747,4.576106847526331,0.25088522460746643,0.042030200728950286,0.9043360669831756,0.0017667246694495686,0.12060546874926388,0.1019897460931275,0.0520019531246826,0.05145263671843595,0.05267333984342851,0.058532714843392744,0.05987548828088455,0.10595703124935328,0.1653442382802408,0.2315673828110866,0.15557210390335538,0.05979212540640403,6.815335827860799e-05,yaprak
79.72984487375652,4.798373901435442,0.24635750738514653,0.04102419576826668,0.926940209750339,0.0016833854862095372,0.1188964843742743,0.10583496093685403,0.05255126953092925,0.051940917968432976,0.05316162109342552,0.05810546874964535,0.058959960937140135,0.1095581054680813,0.1595458984365262,0.23144531249858735,0.1550424967708792,0.06115228506383552,7.2268192172391e-05,yaprak
69.79060148354976,4.443160296476969,0.2538044849553025,0.03910206633984405,0.9312889115889506,0.001529398713600178,0.11981201171801872,0.09484863281192109,0.052917480468427015,0.05364990234342255,0.0544433593746677,0.06347656249961257,0.06420898437460809,0.1030883789056208,0.16302490234275496,0.23052978515484296,0.15314623810991038,0.06575718611731979,0.00012386658828556854,yaprak
64.45015008389642,4.250133808861474,0.25800486125209054,0.04467627931513721,0.894319988137386,0.001996282766032644,0.1259765624992311,0.10137939453063123,0.047851562499707935,0.04870605468720272,0.049560546874697506,0.05645751953090541,0.06274414062461704,0.11071777343682422,0.16717529296772962,0.22943115234234965,0.15675860843668807,0.056608448616426554,4.925340741900407e-05,yaprak
69.26199363336491,4.407137618962849,0.25386171441343447,0.0409907074123544,0.9188949387272434,0.0016805114847043667,0.12145996093675866,0.10296630859312154,0.048522949218453834,0.053466796874673664,0.05230712890593074,0.0599975585933838,0.06372070312461107,0.10760498046809322,0.16168212890526315,0.22827148437360673,0.15432949173067909,0.0629300067947259,0.0001343113013850974,yaprak
61.89077818390207,4.269659246349825,0.25230224068798496,0.040086024028855305,0.9280827707702473,0.0016071849049073752,0.1231079101554986,0.10723876953059547,0.05102539062468856,0.04431152343722954,0.04907226562470048,0.057678222655897955,0.05682373046840317,0.10528564453060739,0.16937255859271622,0.23608398437355904,0.15490908513632076,0.06148945531818819,0.00013726383274754677,yaprak
87.90766655752549,5.059265095092864,0.23562382841842244,0.03828338744916711,0.9267745701897048,0.0014659312774728725,0.11749267578053288,0.0984497070306491,0.05554199218716099,0.05328369140592478,0.05316162109342552,0.06152343749962449,0.06323242187461406,0.10437011718686297,0.16003417968652323,0.23291015624857841,0.15480118151164102,0.06176060213233063,9.526599155097496e-05,yaprak
68.34828194265958,4.109029761028335,0.2600368085221544,0.05152706081027911,0.9167018498929069,0.0026551678124053842,0.12988281249920725,0.10693359374934733,0.0444335937497288,0.043518066405984386,0.04071044921850152,0.05035400390594266,0.05664062499965429,0.10937499999933242,0.1779785156239137,0.2401733398422841,0.15587902382591076,0.0589873520714243,0.00011006846650531721,yaprak
64.94322265988471,4.648094319626221,0.22386389064133982,0.04723013415666585,0.8612045483323278,0.002230709679229284,0.13885498046790248,0.10388183593686595,0.04803466796845682,0.040100097656005244,0.03894042968726232,0.04943847656219825,0.050964355468438936,0.11138916015557013,0.17669677734267153,0.24169921874852476,0.15924648227511218,0.04917657630571182,8.18585426493046e-06,yaprak
59.27998250918542,4.1972641718721615,0.25097776812315276,0.0500497270656988,0.8731549596807232,0.002505118738911038,0.1312866210929487,0.10388183593686595,0.04681396484346427,0.0444335937497288,0.03863525390601419,0.05047607421844191,0.05743408203089945,0.10992431640557906,0.17834472656141145,0.23876953124854267,0.15838618866162887,0.05188056490795029,3.262980374240121e-05,yaprak
110.49532274455697,5.295910244164368,0.21769838153088633,0.044477453392052994,0.885328470874959,0.001978298970477078,0.13439941406167968,0.10260009765562378,0.049804687499696014,0.04315185546848662,0.04156494140599631,0.05004882812469452,0.05285644531217739,0.10827636718683913,0.17706298828016928,0.24023437499853373,0.15725599627209266,0.055211678205048895,3.747253832499921e-05,yaprak
74.92003909398733,4.862302931637222,0.22575713780480497,0.047227628754916325,0.8636598838534636,0.002230516490152775,0.13610839843666925,0.10546874999935626,0.04455566406222805,0.0419921874997437,0.03442382812478989,0.045471191405972465,0.0537719726559218,0.11175537109306789,0.18115234374889433,0.24530029296725278,0.15847532018784982,0.05160766091776286,1.2042584622826145e-05,yaprak
58.080799966289064,4.5157896878294554,0.22535784334026585,0.04649734510836648,0.8446168926092454,0.0021620928799688743,0.13720703124916256,0.10607910156185255,0.045043945312225074,0.03979492187475711,0.03735351562477201,0.04370117187473327,0.05352783203092329,0.10772705078059248,0.18237304687388686,0.24719238281099123,0.1594251575671478,0.04859420653467953,2.2334957708518325e-05,yaprak
75.28305308954636,4.845545823904253,0.2196201858310554,0.046773097277871434,0.8655954652623141,0.002187779915142004,0.13891601562415212,0.10504150390560887,0.045471191405972465,0.039428710937259345,0.0382080078122668,0.047851562499707935,0.053466796874673664,0.1099853515618287,0.1777954101551648,0.24383544921726175,0.15869631557455033,0.050924033590568435,1.122087855244608e-05,yaprak
60.64100596170104,4.283012886338346,0.2403474858069657,0.0498392948661532,0.8656676981409023,0.002484058324800466,0.13452148437417893,0.1062011718743518,0.045471191405972465,0.04156494140599631,0.03656005859352685,0.04534912109347321,0.056152343749657274,0.11145019531181975,0.17858886718640998,0.2441406249985099,0.15946464876131083,0.04846445676582197,8.492455976175142e-06,yaprak
80.24348042055765,4.8253779827873275,0.2253122595087605,0.046383371339688687,0.8952218935683638,0.002151535702441059,0.13568115234292186,0.11114501953057163,0.04217529296849258,0.03875732421851344,0.038696289062263814,0.04962158203094713,0.0551147460934136,0.10699462890559695,0.17901611328015737,0.24279785156101807,0.15801889178145379,0.0529887498832708,1.811424692518799e-05,yaprak
59.42366428483033,4.040194971015014,0.2571597480715258,0.052409888905180765,0.9098309497235851,0.0027468922294074105,0.1300048828117065,0.10980224609307981,0.04571533203097097,0.04394531249973178,0.03833007812476605,0.04534912109347321,0.05639648437465578,0.11303710937431007,0.17926025390515588,0.23815917968604638,0.15653489064995785,0.05722417131532143,8.872204682974799e-05,yaprak
71.04267340175578,4.212808281085415,0.2600349261145551,0.05508750973782123,0.921463546455912,0.0030348249192259096,0.12683105468672587,0.10406494140561483,0.04962158203094713,0.046020507812219114,0.04284667968723848,0.0537719726559218,0.05889892578089051,0.10766601562434286,0.1717529296864517,0.23852539062354414,0.15589670965160368,0.058940594613560375,7.726365883034993e-05,yaprak
63.571038337390874,4.3481282743816205,0.24011023234374346,0.05050101456516943,0.8829849065450861,0.002550411330639861,0.13610839843666925,0.10839843749933839,0.04486083984347619,0.03698730468727424,0.036071777343529836,0.04693603515596352,0.052917480468427015,0.10949707031183167,0.18170166015514097,0.24652099609224534,0.15793682770257852,0.05323284915270386,5.0099065946445735e-05,yaprak
81.71221431505577,4.971860662471396,0.2199744307037435,0.047750927494437316,0.9105412866826883,0.002280209333045446,0.1419677734366335,0.10363769531186744,0.04626464843721762,0.03649902343727723,0.03302001953104846,0.047546386718459795,0.05566406249966025,0.11120605468682125,0.18170166015514097,0.24249267577976993,0.15631474503859458,0.057822817786853865,0.00010318259282527727,yaprak
62.04067389775574,4.594454161564652,0.22801015404690955,0.04748102259450282,0.8966831886133552,0.0022545210216271296,0.13507080078042558,0.1072998046868451,0.04663085937471539,0.03863525390601419,0.03735351562477201,0.045898437499719856,0.054870605468415094,0.1104125976555761,0.18377685546762831,0.24005126952978484,0.15837868345282163,0.05190347196210142,2.337768046504191e-05,yaprak
88.73652732462091,5.102927471480058,0.22156864525076922,0.04693494522674875,0.8626894364465663,0.00220302178704104,0.13281249999918937,0.10784912109309173,0.04803466796845682,0.0402221679685045,0.03894042968726232,0.050231933593443405,0.05731201171840019,0.11004638671807833,0.1762084960926745,0.23834228515479527,0.15836656548370245,0.051940434257908404,1.8340661431267667e-05,yaprak
64.45552484074003,4.226292702585537,0.25999853043700655,0.05090322455777551,0.8921127870963903,0.0025912496004855505,0.13079833984295167,0.10095214843688383,0.049560546874697506,0.049255371093449365,0.04284667968723848,0.053222656249675156,0.055297851562162485,0.10827636718683913,0.17498779296768194,0.23480224609231687,0.1565890987450312,0.057075668440438626,5.202207415360592e-05,yaprak
51.41151734647379,4.2920770138416104,0.24036334938615148,0.04648931812880765,0.8644173591653994,0.0021613574990225317,0.13647460937416703,0.10217285156187639,0.04467773437472731,0.039978027343505994,0.04003906249975562,0.052490234374679624,0.05535888671841211,0.11071777343682422,0.1775512695301663,0.24053955077978184,0.15784869153447453,0.053493629102355715,5.615473813747418e-05,yaprak
75.81330600161454,4.463091519933129,0.24324974267846944,0.04828166768530619,0.9172979437784353,0.002331288489412862,0.13269042968669012,0.1062011718743518,0.0457763671872206,0.042114257812242956,0.0419921874997437,0.04797363281220719,0.05786132812464684,0.10974121093683019,0.17608642578017525,0.2395629882797878,0.1560928978871359,0.05841904657243677,0.00011708923201866942,yaprak
78.1239681580953,4.9476448913836375,0.22279367151998947,0.045959079423546836,0.8962924876230438,0.0021122856631016376,0.13653564453041664,0.10742187499934434,0.04412841796848066,0.03851318359351493,0.03613281249977946,0.049255371093449365,0.05426025390591882,0.11077880859307386,0.18029785156139955,0.24267578124851882,0.1572472664581093,0.05523653650632181,4.1779524659296986e-05,yaprak
86.80825953058608,4.670662122574409,0.2504337129988754,0.048035215499122944,0.9115261697949406,0.002307549584586166,0.1279907226554688,0.10003662109313942,0.049560546874697506,0.045898437499719856,0.041809082030994815,0.05676269531215355,0.05352783203092329,0.10943603515558205,0.17517089843643083,0.2398071289047863,0.15535860895899,0.06034467993076797,3.85281727054516e-05,yaprak
49.3228008604466,3.7501614182916505,0.27459208076644237,0.0559274963207753,0.9071027917545825,0.003128071195147755,0.12792968749921918,0.10589599609310366,0.045898437499719856,0.040100097656005244,0.03839111328101568,0.04937744140594862,0.057250976562150564,0.10858154296808727,0.1822509765613876,0.24432373046725875,0.15580499708466758,0.05918260434366502,9.541326318004632e-05,yaprak
61.75830753224237,4.046621913556422,0.27214696730861176,0.04588384257691163,0.9510650703891714,0.002105512269986981,0.12194824218675568,0.10321044921812005,0.049804687499696014,0.050964355468438936,0.04907226562470048,0.057678222655897955,0.05578613281215951,0.10815429687433988,0.17169189453020206,0.23168945312358588,0.15307538058090991,0.06592196623756424,0.00021114880726407233,yaprak
78.39433665195708,4.703827466248773,0.23281440212596424,0.05066695465148055,0.881585103985677,0.00256732053936925,0.1364135742179174,0.1030883789056208,0.045898437499719856,0.04046630859350301,0.03723144531227276,0.04870605468720272,0.05541992187466174,0.11236572265556417,0.17669677734267153,0.24371337890476247,0.15699838785392842,0.055940003439715155,5.475874809809925e-05,yaprak
93.26668384587202,5.0619858349093025,0.22273784771905014,0.04898050688210718,0.8549524124445129,0.002399216736017804,0.13696289062416403,0.10528564453060739,0.04638671874971688,0.03692626953102462,0.033935546874792874,0.05035400390594266,0.05279541015592776,0.11181640624931752,0.1780395507801633,0.24749755859223938,0.15816510798130098,0.05255070305275988,1.0256546923220352e-05,yaprak
73.977052809577,4.547722536851423,0.24052929330960415,0.051528623365586675,0.8814611724697599,0.002655283614277796,0.1375732421866603,0.1051025390618585,0.04284667968723848,0.03857421874976456,0.037048339843523875,0.049682617187196756,0.056152343749657274,0.1137695312493056,0.17626953124892414,0.24298095702976696,0.15706549618005497,0.05575130207758282,6.286497861559873e-05,yaprak
78.0058448437241,4.712798593566066,0.236627943082651,0.04770894300880842,0.8809188161735979,0.00227622893275356,0.1312866210929487,0.10516357421810812,0.04553222656222209,0.040832519531000776,0.039978027343505994,0.05169677734343447,0.05554199218716099,0.1093139648430828,0.17907714843640699,0.2415771484360255,0.15638630347142732,0.057629001902590196,4.039314552748754e-05,yaprak
87.65119081410458,4.9477340165619275,0.22841701924710783,0.04805706375610401,0.8974475966277118,0.0023096145123564496,0.13305664062418787,0.1030883789056208,0.04943847656219825,0.043762207030982894,0.039978027343505994,0.051513671874685585,0.05426025390591882,0.10748291015559397,0.17614746093642486,0.24127197265477737,0.1570652215030824,0.05575207590765356,3.466968628282065e-05,yaprak
74.89010211614436,5.094747572307728,0.2066659510061031,0.04097058787280001,0.9040702039578056,0.0016787107337175484,0.13525390624917447,0.10693359374934733,0.049316406249699,0.04058837890600227,0.04095458984350003,0.049133300780950115,0.05566406249966025,0.11071777343682422,0.17236328124894798,0.2390747070297908,0.15851899393248292,0.051473355598828485,2.7978204025847468e-05,yaprak
52.729286146073946,3.799048637159845,0.26522143374146506,0.049877904595465164,0.910812108363604,0.002488144177227935,0.12542724609298445,0.10229492187437564,0.04986572265594564,0.04748535156221017,0.04681396484346427,0.053222656249675156,0.06201171874962151,0.10864257812433689,0.16625976562398523,0.2379760742172975,0.15652714737567452,0.05724534835431022,5.582328449657143e-05,yaprak
59.340672880566366,4.303798791191425,0.2461642254094932,0.055178707575026666,0.8310788553866355,0.0030447627838268605,0.13635253906166778,0.10131835937438159,0.04693603515596352,0.04101562499974966,0.03735351562477201,0.045166015624724325,0.05682373046840317,0.10864257812433689,0.18231201171763725,0.24407958984226025,0.15763197371736878,0.05412890758111091,3.79577475971578e-05,yaprak
71.57385219848842,4.468611105191066,0.24590608241654452,0.053246646584144075,0.8726125891504658,0.0028352710943542548,0.13360595703043454,0.1072998046868451,0.04412841796848066,0.0408935546872504,0.038696289062263814,0.048278808593455326,0.05480957031216547,0.11181640624931752,0.18164062499889136,0.23883056640479228,0.15715911306702238,0.055486853882268435,4.485456598877325e-05,yaprak
94.04945914579739,5.062794500589119,0.22150587008085043,0.05067704536567616,0.8586610603471396,0.002568239818349119,0.13543701171792336,0.10516357421810812,0.047546386718459795,0.0413208007809978,0.03546142578103356,0.04724121093721166,0.05139160156218633,0.11077880859307386,0.1804199218738988,0.24523925781100317,0.15761837761720426,0.05416848540473365,5.608493698274325e-05,yaprak
58.09384009393187,4.222242835110747,0.24391165519630648,0.05328711156611895,0.8585838361378151,0.002839602360264191,0.1315307617179472,0.11016845703057758,0.04705810546846278,0.039855957031006736,0.034912109374786914,0.04663085937471539,0.051513671874685585,0.11419677734305299,0.1824340820301365,0.24169921874852476,0.15878207844342687,0.05065599016089573,3.0801509852154974e-05,yaprak
73.43893895991155,4.583867398203633,0.23497685028032145,0.04721221828389382,0.9332581111855183,0.002229163624556491,0.13439941406167968,0.10852050781183764,0.04650878906221613,0.03857421874976456,0.03991699218725636,0.049255371093449365,0.05340576171842403,0.11187744140556714,0.17565917968642786,0.24188232421727365,0.1555252733388458,0.05991383084065312,0.00012350478906248002,yaprak
82.09391674643027,4.752367508641383,0.23440759032746392,0.04462809707954243,0.879994251404496,0.001991721450794684,0.1364135742179174,0.10656738281184956,0.04345703124973476,0.03936767578100972,0.03656005859352685,0.05255126953092925,0.057128906249651314,0.11029052734307683,0.17980957031140252,0.23785400390479824,0.15597824326548296,0.05872448723681566,9.18147096416716e-05,yaprak
88.49902664649437,4.72559229493471,0.2475165107511221,0.03478047339625752,0.9151199682899115,0.0012098312552260636,0.12371826171799488,0.10327148437436967,0.049560546874697506,0.04669189453096501,0.051513671874685585,0.057983398437146096,0.058227539062144604,0.10980224609307981,0.1652832031239912,0.2339477539048221,0.15032254804306305,0.07197853375993998,0.00028489555043084523,yaprak
71.60389961405173,4.389898436046966,0.2516628980325287,0.037248208837342506,0.9294412537958803,0.0013876140789575411,0.12347412109299637,0.10363769531186744,0.05041503906219229,0.0482177734372057,0.05371093749967217,0.05761718749964833,0.05926513671838827,0.10778808593684211,0.1652832031239912,0.23059082031109257,0.15446395503490729,0.06259923616451393,7.521937416243737e-05,yaprak
65.49095222018784,4.170216617777071,0.25392020219155076,0.04254091633542251,0.9029019387038126,0.0018099269373388664,0.12359619140549562,0.10437011718686297,0.05084228515593968,0.04907226562470048,0.04724121093721166,0.05957031249963641,0.05859374999964237,0.10852050781183764,0.16497802734274306,0.23321533202982656,0.1554832401160889,0.06002282745792868,0.00014514038539961889,yaprak
80.45241369389305,4.487442553010212,0.24553310098768277,0.03772001329880982,0.9171778646326835,0.0014229731821897775,0.1199951171867676,0.10675048828059844,0.049560546874697506,0.052246093749681116,0.05480957031216547,0.061767578124622996,0.05975341796838529,0.10552978515560589,0.16003417968652323,0.2295532226548489,0.1539806634660256,0.06377878214421856,0.00010558771919062629,yaprak
77.94116854249675,4.602827326748531,0.2454757169877104,0.03413835937212582,0.9316220916502527,0.001165711437565541,0.11834716796802766,0.10321044921812005,0.05395507812467068,0.05407714843716994,0.0544433593746677,0.06286621093711629,0.06115722656212672,0.10546874999935626,0.16021728515527212,0.22625732421736902,0.15062422666447517,0.07134507771347473,0.00032655759082470285,yaprak
68.81481543822733,4.312446597549547,0.2497264002294297,0.038316909785681835,0.9027339831290562,0.001468298890425484,0.12158203124925791,0.10296630859312154,0.05157470703093521,0.04937744140594862,0.051513671874685585,0.05926513671838827,0.06146240234337486,0.10461425781186148,0.163513183592752,0.23413085937357098,0.15691290492481644,0.0561793382105843,3.938128423623604e-05,yaprak
73.5672249664837,4.3149115868545085,0.250969301202871,0.03988225795567604,0.9324724754731356,0.0015908449036994873,0.12170410156175718,0.10668945312434881,0.051208496093437444,0.053894042968421055,0.04748535156221017,0.05548095703091137,0.06127929687462598,0.11175537109306789,0.16027832031152173,0.23022460937359482,0.15474836043040496,0.0618928325163943,0.00016665365930683981,yaprak
92.86465118633815,5.150046475874353,0.2365081240931174,0.032664533263840126,0.9350671194433497,0.0010672118178828786,0.11712646484303511,0.10217285156187639,0.050231933593443405,0.05590820312465876,0.06005859374963343,0.06927490234332717,0.06274414062461704,0.10552978515560589,0.15429687499905825,0.222656249998641,0.15276966917539644,0.06662736639712485,0.0001310232562052522,yaprak
68.33333567448608,4.3358810701997355,0.24760638140639807,0.038118234714680004,0.9332180416418594,0.0014531230057169787,0.12371826171799488,0.10833740234308875,0.0488891601559516,0.04626464843721762,0.050537109374691545,0.061767578124622996,0.057128906249651314,0.10418701171811409,0.16461181640524528,0.23455810546731837,0.1553744904662525,0.06030377671043852,0.00013179886126545923,yaprak
66.56222027288057,4.39630963636937,0.24862040509235683,0.03334873096726524,0.9437465580891117,0.0011122615604385962,0.1210937499992609,0.10150146484313048,0.05029296874969304,0.05181884765593372,0.05578613281215951,0.06127929687462598,0.06170654296837337,0.1051025390618585,0.16058349609276987,0.23083496093609107,0.15515821780986766,0.060858074396535906,0.00010833180294059207,yaprak
109.02151985554488,5.076039761454654,0.24284958834867382,0.0367244904377656,0.9083370926386737,0.0013488414392468344,0.1242065429679919,0.10321044921812005,0.049255371093449365,0.05242919921842999,0.053466796874673664,0.059692382812135666,0.060668945312129706,0.1071166992180962,0.15850830078028252,0.23144531249858735,0.15556625293810097,0.05980734670910457,4.9339083577976174e-05,yaprak
82.73630862886999,4.471325911401909,0.24458225040996118,0.03773380385395919,0.9373444821474586,0.0014240067363984028,0.12622070312422962,0.10864257812433689,0.04986572265594564,0.0444335937497288,0.04174804687474519,0.055725097655909876,0.05651855468715503,0.10748291015559397,0.16925048828021697,0.24011230468603445,0.1559096201364199,0.0589064353206387,0.00014610332808629882,yaprak
85.8006200738999,4.772629439790255,0.23907114422709777,0.03253696292023632,0.9257106763288638,0.001058812453833342,0.12164306640550754,0.10284423828062228,0.05212402343718186,0.050537109374691545,0.05340576171842403,0.06451416015585623,0.057678222655897955,0.10528564453060739,0.1613159179677654,0.2306518554673422,0.1523705658203927,0.06753509046897717,0.00015848097317036177,yaprak
63.394201268873154,4.174043672306171,0.24862763732445087,0.041554188533182504,0.9096221243724225,0.0017269048117552965,0.12438964843674077,0.1029052734368719,0.05157470703093521,0.05004882812469452,0.048828124999701975,0.05633544921840615,0.057983398437146096,0.10662841796809919,0.1657714843739882,0.2355346679673124,0.15695814955090087,0.05605280602490001,8.834668407649135e-05,yaprak
56.877634399801636,4.099523882641585,0.24892307210361495,0.04142304697453659,0.9103869798286253,0.0017160076343638235,0.12634277343672887,0.10534667968685701,0.05255126953092925,0.046569824218465755,0.0426635742184896,0.05633544921840615,0.05426025390591882,0.10913085937433391,0.16851806640522143,0.23828124999854564,0.15865625703724986,0.05104870103080886,2.9906909270947765e-05,yaprak
55.55550306803897,4.134341553839429,0.2531360975334512,0.03707630375282421,0.9462882645585309,0.0013748465022596949,0.12384033203049413,0.10217285156187639,0.05084228515593968,0.04974365234344639,0.05059814453094117,0.057128906249651314,0.058959960937140135,0.1102294921868272,0.163513183592752,0.23297119140482805,0.1554303597469156,0.06015962966961844,0.00014788915441854515,yaprak
472.4121122813027,15.217823025491253,0.0845810141090442,0.011494107708874934,0.8875472905607642,0.000132687319995675,0.04077148437475115,0.0626831054683674,0.06774902343708648,0.15216064453032127,0.2587280273421708,0.14758300781159922,0.07592773437453657,0.06030273437463194,0.05126953124968708,0.08282470703074447,0.15614912882498636,0.05826857936452276,-2.1234786412737018e-05,yaprak
351.406617157009,12.788893937163733,0.09946924473979979,0.012504127139857085,0.9102158653461344,0.00015676338205853794,0.051086425780938194,0.060668945312129706,0.07061767578081898,0.1482543945303451,0.2294921874985993,0.14367675781162306,0.07153320312456339,0.06286621093711629,0.06158447265587411,0.10021972656188831,0.15238501119094414,0.06750248986525854,7.2950882387455115e-06,yaprak
384.90204694864997,12.950922179188833,0.11047150011183603,0.012436394375227148,0.9171348529314273,0.00015504315312278642,0.05523681640591286,0.06970214843707456,0.062316894530869645,0.12152099609300829,0.238220214842296,0.14404296874912081,0.07025146484332122,0.06781005859333612,0.06329345703086368,0.10760498046809322,0.14941548089878112,0.07384302161373886,5.6352554613110434e-05,yaprak
445.02392732524356,14.24611784770571,0.08879106065447487,0.012418845703371975,0.8789414450425854,0.00015456537141531821,0.06530761718710139,0.07348632812455147,0.06591796874959767,0.1250610351554867,0.20989990234246886,0.12457275390548966,0.07080078124956786,0.0764160156245336,0.07098388671831675,0.1175537109367825,0.15362055942580427,0.0646413296219163,2.360032000019265e-05,yaprak
451.0159896140648,14.197529609904624,0.09499549480765956,0.013309410769898604,0.8761326925687529,0.00017765436522035468,0.05792236328089647,0.06317138671836443,0.06854248046833164,0.1399536132803958,0.22625732421736902,0.13238525390544198,0.07238769531205817,0.06750488281208798,0.06457519531210586,0.1072998046868451,0.15400339018595666,0.06372388551487897,-2.169722854440042e-05,yaprak
364.10362279321976,12.468272405296007,0.11329967147108608,0.013561398745898998,0.9089836197906064,0.0001845450668495328,0.04327392578098588,0.05749511718714907,0.05664062499965429,0.14294433593662753,0.28295898437327294,0.15832519531153366,0.0697631835933242,0.05371093749967217,0.05255126953092925,0.08233642578074746,0.151200929067399,0.0701145977865275,-1.6140323593717056e-05,yaprak
389.26981146153844,12.080565528319799,0.13481357751636583,0.014520037932876602,0.9027463276796823,0.00021157086548576913,0.04919433593719974,0.060668945312129706,0.05908203124963939,0.12945556640545985,0.25341796874845324,0.16015624999902248,0.07336425781205222,0.060791015624628957,0.05780029296839721,0.09606933593691364,0.14654569709010218,0.07938599648238223,7.531883867177765e-05,yaprak
411.7327958132784,13.619657454159553,0.1110794555620633,0.01236471538714437,0.9131208824630912,0.00015372764787068867,0.03790283203101866,0.05810546874964535,0.06085205078087859,0.1417846679678846,0.297363281248185,0.14385986328037195,0.06805419921833462,0.05682373046840317,0.05596923828090839,0.07928466796826608,0.14883047822411943,0.07501510864217868,7.786335784621685e-05,yaprak
303.2074825673295,11.474059366088198,0.11965561241029302,0.013947995319858644,0.9046869460123081,0.00019517952362701352,0.04302978515598736,0.05841064453089349,0.06542968749960065,0.14874267578034214,0.2502441406234726,0.15802001953028552,0.07513427734329141,0.05889892578089051,0.05383300781217143,0.08825683593696132,0.15219238099763782,0.06793568237703562,-2.567774409256927e-05,yaprak
397.9824370117956,12.729298739848868,0.11492268372545078,0.014365560559200772,0.8997258055952848,0.00020707555066496478,0.05255126953092925,0.05987548828088455,0.0593261718746379,0.14099121093663944,0.24511718749850392,0.1459960937491089,0.07037353515582047,0.06152343749962449,0.06219482421837039,0.10205078124937712,0.15204737704693827,0.06825959937425372,2.5744281710347733e-05,yaprak
559.5620988156647,15.575591592591138,0.08856483606195163,0.012777404820563288,0.8248062855952483,0.0001637069911021327,0.054870605468415094,0.06701660156209097,0.0690917968745783,0.13702392578041367,0.22167968749864697,0.1382446289054062,0.07281494140580556,0.06768798828083686,0.06219482421837039,0.10937499999933242,0.15578733845478457,0.05922907184172991,-4.165229446925733e-05,yaprak
483.16272198955755,14.943615973170942,0.09125049673566828,0.012653778047267472,0.8466324085583161,0.00016053646501003235,0.05902099609338976,0.07061767578081898,0.06585693359334804,0.13598632812417,0.21545410156118497,0.12847900390546582,0.07476806640579364,0.07275390624955594,0.0655517578120999,0.11151123046806938,0.15280904872907933,0.06653700023377214,1.5493770861725193e-05,yaprak
487.2988069335952,14.785446391206598,0.09179775504150643,0.012563077266884253,0.8457260600900587,0.00015818959018481992,0.06372070312461107,0.06713867187459022,0.06103515624962747,0.12902832031171246,0.21899414062366335,0.13458251953042857,0.07012939453082197,0.06732177734333909,0.07073974609331823,0.11730957031178399,0.1520119668377696,0.06833842046456474,3.65577155607393e-05,yaprak
1097.8435419606753,23.636786320451012,0.05256969212279146,0.009916430195325775,0.726933465727216,9.859363394266294e-05,0.06652832031209394,0.08056640624950825,0.07806396484327353,0.12634277343672887,0.17315673828019312,0.12628173828047923,0.07543945312453955,0.08184814453075044,0.06933593749957681,0.1224365234367527,0.1566093043416902,0.05702020315409664,-1.3595904823969637e-05,yaprak
843.1662989850379,19.899530857657723,0.06715757034862281,0.010584504125929244,0.8034543149839407,0.0001122395910880193,0.0655517578120999,0.07989501953076236,0.07281494140580556,0.12579345703048223,0.18389892578012756,0.12164306640550754,0.07122802734331525,0.07812499999952316,0.07403564453079813,0.12701416015547476,0.15576438506950133,0.05928940982996149,-3.1753663206708104e-05,yaprak
658.4628200272922,17.721557200929073,0.07598240240623041,0.011168819811200449,0.8371711152003765,0.0001250932905994479,0.05145263671843595,0.06842041015583239,0.07232666015580855,0.13763427734290995,0.2295532226548489,0.1364135742179174,0.0784301757807713,0.06732177734333909,0.05706787109340168,0.10137939453063123,0.15289448782818255,0.06634043537234574,3.9388131804493416e-05,yaprak
838.3996086001266,19.83288169310996,0.06651312259965157,0.010923345929197349,0.789971351459072,0.00011957460167656739,0.06323242187461406,0.07537841796828992,0.07373046874954998,0.12969970703045838,0.18524169921761938,0.13543701171792336,0.07507324218704178,0.07092285156206712,0.07025146484332122,0.12103271484301127,0.15595505491153702,0.05878604104393658,-4.1563433290897995e-05,yaprak
802.5908976311173,19.381329219692084,0.06863145826273637,0.011193445692913626,0.782126742139407,0.00012565057003605348,0.05816650390589498,0.06988525390582345,0.07031249999957084,0.13586425781167075,0.21014404296746736,0.1384277343741551,0.07720947265577875,0.06903076171832867,0.061340332030875605,0.10961914062433094,0.15461989999239587,0.06221305570572799,-6.524312312962631e-06,yaprak
750.3347757243383,18.052909355820965,0.08229694887645517,0.01175604138084764,0.7924995240789208,0.0001386153120342302,0.05297851562467664,0.07165527343706264,0.06762695312458723,0.13281249999918937,0.23059082031109257,0.13696289062416403,0.0704345703120701,0.06695556640584133,0.06549072265585028,0.10449218749936223,0.152539984386976,0.0671515520054195,3.6588386199575096e-05,yaprak
570.9595118604759,15.944921729688499,0.08744897799904242,0.012450832977607776,0.8116778234604811,0.00015533513367606248,0.06341552734336293,0.07098388671831675,0.07427978515579663,0.13079833984295167,0.19458007812381237,0.12878417968671396,0.06994628906207308,0.07165527343706264,0.07476806640579364,0.12078857421801276,0.15460668361001284,0.06224589269121184,-1.3997383568078038e-07,yaprak
862.8893143998341,20.32626075799276,0.06756996474421251,0.010549095609709182,0.7870133439062051,0.00011155048214827191,0.06713867187459022,0.07794189453077428,0.07397460937454849,0.12414550781174227,0.1806640624988973,0.1253051757804852,0.06988525390582345,0.07739257812452763,0.07568359374953806,0.12786865234296954,0.15503746447154976,0.06116504217321154,-1.503996802337904e-05,yaprak
502.190174603064,14.014717158342107,0.11032720063090307,0.01280385086991856,0.887284993081578,0.00016444356696856496,0.05651855468715503,0.06738281249958873,0.06372070312461107,0.13916015624915062,0.2157592773424331,0.1375732421866603,0.07196044921831078,0.06573486328084878,0.06964111328082494,0.11254882812431305,0.15236313234934146,0.06755185914853189,1.3515214352860818e-06,yaprak
532.7884558191676,15.076822997397837,0.09773362537388953,0.012084983829991677,0.8755749858854791,0.0001464573736837067,0.06604003906209692,0.07879638671826907,0.07086181640581748,0.11077880859307386,0.20745849609248376,0.11517333984304703,0.06793212890583537,0.07891845703076832,0.07794189453077428,0.12609863281173034,0.14788506668557608,0.07686211566510595,9.33141617310659e-05,yaprak
208.39192191666922,8.927051768166356,0.14761286618407016,0.016926219268734388,0.929208065102985,0.00028791499442015354,0.03881835937476307,0.052246093749681116,0.05157470703093521,0.15014648437408357,0.288024902341992,0.16210937499901057,0.07067871093706861,0.052917480468427015,0.05145263671843595,0.08203124999949932,0.1498313088936979,0.07299559335126964,-1.0668946527205953e-06,yaprak
641.1395238923744,17.038842230029204,0.07828498312244103,0.012589465611400029,0.7831788403420019,0.00015890851499615198,0.05157470703093521,0.07281494140580556,0.07537841796828992,0.14874267578034214,0.20190429687376765,0.1381835937491566,0.07464599609329439,0.06994628906207308,0.06127929687462598,0.10552978515560589,0.15660698642811252,0.05702656903479028,-5.316992539007923e-06,yaprak
559.0537677911996,15.697985892067397,0.10067543624431799,0.012715520213301894,0.8423300268786833,0.00016210676790266547,0.06262207031211778,0.07489013671829291,0.06732177734333909,0.12408447265549265,0.1930541992175717,0.1353149414054241,0.07824707031202241,0.07202148437456041,0.07055664062456936,0.12188720703050605,0.15303665581602932,0.06601181523271583,-1.1424076922464684e-06,yaprak
803.1731983152429,19.56606791338811,0.06811216649104554,0.010167290013349616,0.8435086087028862,0.00010362260333650682,0.05407714843716994,0.06964111328082494,0.07385253906204924,0.13537597656167372,0.22027587890490552,0.13635253906166778,0.07293701171830483,0.06951904296832569,0.06280517578086667,0.10516357421810812,0.153765079379737,0.0642967972540878,-5.122811843089091e-06,yaprak
459.33699707246274,14.554970133378667,0.08982942227750812,0.01299874326960708,0.8502579069206528,0.00016943970700118998,0.048522949218453834,0.06463623046835548,0.07104492187456637,0.14538574218661263,0.22991943359234668,0.14703369140535258,0.07769775390577577,0.061767578124622996,0.05645751953090541,0.0975341796869047,0.15527455503513543,0.06056063352197755,-1.6669912463815625e-05,yaprak
492.64906307162613,14.914097859447516,0.0895898913198497,0.013072125945450206,0.8658962115186352,0.00017152101359923266,0.05804443359339572,0.07019042968707159,0.07092285156206712,0.13067626953045242,0.2192993164049115,0.13098144531170056,0.07128906249956489,0.06781005859333612,0.06732177734333909,0.11346435546805746,0.15159901044437202,0.06924967729599665,5.751621517589269e-05,yaprak
611.8282746722278,16.805162915014634,0.07601720141823655,0.011396771228099203,0.8491627987297847,0.00013017064457775725,0.06854248046833164,0.07879638671826907,0.06518554687460214,0.12121582031176015,0.20343017578000835,0.1221923828117542,0.06768798828083686,0.07812499999952316,0.07196044921831078,0.1228637695305001,0.1526385440424099,0.0669272190247995,-9.839733377430746e-06,yaprak
504.9364353416919,15.227372134433725,0.08770224337419971,0.01237413575460237,0.8643436532799128,0.0001535727760656471,0.055297851562162485,0.07324218749955297,0.06494140624960362,0.12463378906173929,0.23144531249858735,0.13702392578041367,0.07574462890578769,0.06701660156209097,0.06365966796836145,0.10699462890559695,0.15352458517052842,0.06486894111986105,-2.626104234724052e-05,yaprak
458.6514103575519,13.752572762959428,0.10016164997616517,0.014206158246144934,0.8386425082060442,0.00020249396422274954,0.04467773437472731,0.06304931640586517,0.0686645507808309,0.15429687499905825,0.23602294921730943,0.14587402343660966,0.08374023437448888,0.06225585937462002,0.05352783203092329,0.08789062499946355,0.15433372668383433,0.0629196200053116,1.8263012473953502e-05,yaprak
370.1559506556781,12.9799981787473,0.09988006524633465,0.01374556528652285,0.8625255033434824,0.00018969475622181744,0.046020507812219114,0.06372070312461107,0.06823730468708351,0.14544677734286227,0.24249267577976993,0.14813232421784586,0.07684326171828099,0.06005859374963343,0.05664062499965429,0.09240722656193599,0.15375002741277272,0.06433278203453079,9.741550521421251e-06,yaprak
593.2157175643194,17.098491071984178,0.07053292053220724,0.012072449941727386,0.7955355445734649,0.00014616535925716869,0.05944824218713715,0.06994628906207308,0.08001708984326161,0.1401977539053943,0.19213867187382727,0.13055419921795317,0.07806396484327353,0.0735473632808011,0.0637817382808607,0.11230468749931455,0.15702741719437324,0.05585846420545324,-1.3126033030857674e-05,yaprak
328.93301140902014,12.38105821133625,0.10195969138483581,0.014495920232737386,0.8790752193895449,0.000210980274455705,0.04394531249973178,0.057678222655897955,0.07208251953081005,0.15838623046778327,0.23632812499855757,0.1528320312490672,0.07739257812452763,0.059631347655886034,0.05328369140592478,0.0884399414057102,0.15692799418800338,0.05613717497547483,-1.9070277884701722e-05,yaprak
647.5333303948651,17.03334056668308,0.08393843765413034,0.011821381628400338,0.8364484111242203,0.00014022620343802667,0.04791259765595756,0.06549072265585028,0.0686645507808309,0.14721679687410144,0.23785400390479824,0.14123535156163797,0.08062744140575788,0.06610107421834654,0.05297851562467664,0.09191894531193896,0.152966161761121,0.0661750038127347,3.216273878320576e-05,yaprak
