@RELATION glcm_shape_soft_analysis

@ATTRIBUTE glcm_contrast NUMERIC
@ATTRIBUTE glcm_dissimilarity NUMERIC
@ATTRIBUTE glcm_homogeneity NUMERIC
@ATTRIBUTE glcm_energy NUMERIC
@ATTRIBUTE glcm_correlation NUMERIC
@ATTRIBUTE glcm_ASM NUMERIC
@ATTRIBUTE shape_area NUMERIC
@ATTRIBUTE shape_perimeter NUMERIC
@ATTRIBUTE shape_circularity NUMERIC
@ATTRIBUTE shape_aspect_ratio NUMERIC
@ATTRIBUTE soft_hist_bin_0 NUMERIC
@ATTRIBUTE soft_hist_bin_1 NUMERIC
@ATTRIBUTE soft_hist_bin_2 NUMERIC
@ATTRIBUTE soft_hist_bin_3 NUMERIC
@ATTRIBUTE soft_hist_bin_4 NUMERIC
@ATTRIBUTE soft_hist_bin_5 NUMERIC
@ATTRIBUTE soft_hist_bin_6 NUMERIC
@ATTRIBUTE soft_hist_bin_7 NUMERIC
@ATTRIBUTE class {KuruYaprak,Oak,TazeYaprak,yaprak}

@DATA
159.98168542448002,8.546668754205106,0.1467318946522684,0.013649874017511478,0.9620246064196722,0.00018782128147359965,27825.0,4160.134448766708,0.020203671752180356,1.0,0.0008394129136016608,0.041030046051561186,0.16433302935406915,0.2497800939219535,0.2557866115192176,0.20415667365547888,0.07765419155931777,0.00641994102327452,KuruYaprak
124.28430505995495,7.362438710471886,0.16649431166738696,0.015055460707669832,0.9683236134551051,0.00022780603096115548,22472.0,2294.0571205615997,0.0536590692760626,0.8984375,0.0022757735906828026,0.03416688208481307,0.13943666944295513,0.24903079762140312,0.2790302949788941,0.2137605554914017,0.07798934637319592,0.004309680415128228,KuruYaprak
137.97565186767295,7.568498849601028,0.1813128881502596,0.014794215707204668,0.970252117230295,0.00022000220892542932,14548.0,1855.1799241304398,0.05311792293883729,1.0192307692307692,0.003989006491262296,0.05946954465370828,0.11874407599935925,0.19431050618459939,0.27891863654598986,0.24362362132315762,0.09545557358671092,0.005489035213686479,KuruYaprak
169.98334569336902,8.549112375648825,0.15031916958662103,0.014797610798273672,0.9536979404056822,0.00022010190770881252,31484.0,2729.6206080913544,0.053100081918119206,0.92578125,0.00043155445771992995,0.022525862151466864,0.15962739832236678,0.2854856004897605,0.24690180759766253,0.21314451928199704,0.06951168284686081,0.002371574850639765,KuruYaprak
183.97299057154396,8.650802981425626,0.15974775287505671,0.01611528288966341,0.9494743452144271,0.00026108863379130674,41345.0,3010.3556693792343,0.05733201957046804,1.0,0.0011389638863340465,0.031206377814750184,0.21230498669161846,0.3414328182439644,0.21151829139826792,0.1407677743946994,0.05800374348949481,0.0036270440793449562,KuruYaprak
135.71250479082988,7.249112796160226,0.19030699028358838,0.016689353506565672,0.9660669878209446,0.0002801603566712866,34377.5,1908.1433435678482,0.11864847523650739,0.90625,0.0008418064491408727,0.030138442095542253,0.15135414273108036,0.3190405153755855,0.23691107058021446,0.1624732522401013,0.0938283284503776,0.005412442076431693,KuruYaprak
146.65276966792203,7.049733696174641,0.21935621579851333,0.018027082589062115,0.9633339411572945,0.00032672537602186034,32370.5,2947.7698847055435,0.04681360823171678,1.0,0.0010290407666957344,0.046554146560897125,0.20454592237254338,0.28665663775232003,0.2441551058896397,0.15049959070519314,0.06250251321222079,0.0040570427389644,KuruYaprak
135.03738444949212,7.539197664359792,0.18500994424220762,0.014997033568340945,0.9715053235938866,0.00022678822184702866,30641.5,3262.882580280304,0.036167375483301456,0.93359375,0.00031696394378015366,0.06492207845042179,0.17905931659745963,0.219921815161276,0.24790607527152733,0.2000633688530954,0.08159855861277374,0.006211823108140033,KuruYaprak
107.55193597414677,6.5864903522683775,0.20021793434856264,0.017201925926721533,0.9662769479230159,0.00029765659238533353,28848.5,3800.318212747574,0.025101124317439164,0.9921875,0.00028716442631696384,0.020900711358730374,0.1596770043464169,0.2913087134263325,0.284467809340099,0.1982181324675283,0.04220886230462307,0.0029316023284269,KuruYaprak
161.0633070213455,7.703026330017446,0.18693700881608202,0.017747015330658592,0.9593968540319249,0.0003167774622126119,42310.5,2182.3098644018173,0.11164137844360185,1.0,0.00036591174555703973,0.030412621591558997,0.2646303663062752,0.2991602878939982,0.19934877881786373,0.13726274078946576,0.06513492359824617,0.003684369255509085,KuruYaprak
211.65539012940656,9.116389624783872,0.15134920787462855,0.015533158402978201,0.9336325306306373,0.00024260525722867365,28010.5,3565.5831528902054,0.027686597501044845,0.73828125,0.003276450961238873,0.03746798646210583,0.24812227136910672,0.33842905081903013,0.21696777343716891,0.126686485140738,0.028323304419380777,0.0007266773897047738,KuruYaprak
183.85981530542,8.8311667087179,0.15306443191536678,0.015140967514612868,0.9418122250518509,0.0002303916062797581,35728.5,2784.833810567856,0.05789300349205063,1.0,0.0007066913679523531,0.02546578201589252,0.17619969985037454,0.3261116177423027,0.26258515002640687,0.1675018908928203,0.03995445101862773,0.0014747170840970151,KuruYaprak
206.29379380827828,9.159776783568862,0.14994657119730745,0.014674526509119936,0.9347810930566033,0.00021638128740385291,23401.5,1866.4520013332367,0.08441505508627596,1.0260416666666667,4.1647518382289415e-05,0.01735774021520024,0.134047085630923,0.29613569670987294,0.2870652142688635,0.2066642013247459,0.05601824592132994,0.0026701684091564658,KuruYaprak
416.28024766617636,14.019999204031848,0.09023176247555138,0.010889341394358078,0.8962504036883013,0.00011936410700003991,36942.5,4039.8228253126144,0.02844536486012048,1.0,0.002786972943470012,0.041700176164152065,0.16287129720027232,0.27003060135145684,0.2652490952431615,0.18904257381634748,0.06177326277181135,0.006546020507802512,KuruYaprak
325.36894723484716,11.86024349108487,0.11273392527021801,0.011924231956312403,0.924311192987786,0.00014294903529290655,32608.0,2990.154659152031,0.04582966921954818,0.796875,0.004849602194385983,0.0564759497548158,0.17192370844796073,0.2521320417811716,0.2631644454652847,0.18961456897183068,0.054275033988121814,0.0075646493949026745,KuruYaprak
227.38425860847576,10.11874210039405,0.12988790888137408,0.013031729167993151,0.9437114024193175,0.00017079939856919107,18141.5,2492.407405257225,0.03669821927579204,0.67578125,0.004859296013319792,0.03642021627981575,0.1731780407472848,0.27279728908123196,0.2755546420224043,0.16458117915109685,0.06379430434273352,0.008815032360587042,KuruYaprak
332.1573204566891,11.87501980908762,0.11357419414718481,0.012448322669608389,0.9169446317306531,0.00015577739620211892,39593.5,4083.4552966356277,0.02983857971325796,1.0,0.004971672506885798,0.041102330824845386,0.18864004097704068,0.2996175130203762,0.24452592438305215,0.1550636441097511,0.06020130830643385,0.005877565870089075,KuruYaprak
300.8013832420337,11.339204032102828,0.12000478364084363,0.012980306436222878,0.9187596442339115,0.00016957676949579041,20377.0,3333.801407814026,0.023039373120925903,0.65625,0.00545151654410933,0.04654900045948781,0.15985245050144117,0.30114770029059446,0.2849894205724818,0.14696116727918743,0.0506731220319386,0.00437562231923352,KuruYaprak
288.86922986352874,10.549378814638578,0.14079592627618404,0.013986882770083019,0.9200480444270646,0.00019679208134322707,38465.5,4493.244183063507,0.023942042896613017,1.0,0.004959824505966697,0.041752774107626255,0.19796280206388303,0.31974768545064575,0.24455674115311943,0.1432624368104431,0.04551762599564129,0.002240109911148543,KuruYaprak
250.35806938738142,10.02782645196545,0.1372396967482075,0.014299510430114617,0.917753661425406,0.0002052302711193215,30965.0,2898.036908507347,0.04633115467781121,1.0,0.0003049364276956133,0.021798347024323365,0.10568757898651157,0.26756418265507587,0.33935774260824453,0.20242602778385158,0.059869085573591226,0.002992098939180484,KuruYaprak
331.63567992179594,12.05789358359739,0.11384396619427176,0.011914134131439082,0.918336052569521,0.0001427876654481033,19286.0,3489.6247831583023,0.01990190098726985,0.81640625,0.0021228865081156342,0.04282806994861726,0.1808544682518687,0.251352048387331,0.2724360447299765,0.18033788344411816,0.06559645708859475,0.0044721416398522465,KuruYaprak
232.06348600899926,9.049534584054447,0.16750156970694907,0.01480343511914517,0.9481183939009133,0.0002199023949081588,22668.5,1688.6875013113022,0.09989277303408933,0.75390625,0.0008847105736812483,0.03946616976862851,0.2247216318164464,0.2552412444466081,0.21248904957458387,0.1837641697301117,0.07733980066624224,0.006093223422172076,KuruYaprak
203.78353609490313,9.076072108684386,0.1585826256136834,0.014118677568254601,0.9524504717290494,0.00020046364969862943,28590.0,2870.8165670633316,0.04359263606134538,1.0199203187250996,0.0039499918619731395,0.08629790661368573,0.22494357239931975,0.2740307976213649,0.2191360772821411,0.14551403569217986,0.043255196365589624,0.0028724221622198824,KuruYaprak
77.3162796911063,5.182070162317477,0.2435421133643884,0.021678242189423887,0.9737278218033868,0.0004732946222851347,36649.0,2277.297672510147,0.0888039714436103,1.0,0.0002603568282777891,0.005118874942547339,0.0881221397248962,0.3309412937533247,0.30171107871813646,0.1842465868180399,0.08485155292572832,0.004748116287523394,KuruYaprak
239.37638020833793,9.91608479911563,0.13226010047401698,0.015099364150086385,0.919221641663687,0.0002293786712793587,12384.5,2252.0154886245728,0.030686375513286863,1.3763440860215055,0.000729130763632466,0.02519381654024955,0.08234875248915133,0.20282808191605084,0.37210693359318225,0.2542094511140421,0.060315180759711845,0.0022686528224536468,KuruYaprak
206.37266963128215,9.190759788903446,0.16280670208217296,0.015330227736643545,0.9418822803224224,0.00023628438953683396,38188.0,4157.5558034181595,0.02776262990647576,1.0,0.00040546492034251863,0.050430896235370365,0.2345724666816274,0.3077063466983663,0.23026727414563514,0.13709477443300153,0.03691119025729659,0.0026115866268342502,KuruYaprak
284.2820515546944,11.209387345011248,0.11677748600097843,0.01159602171696388,0.9446196481881629,0.00013531330909093345,23279.5,2310.6185196638107,0.05479324389095003,0.859375,0.007643995098027552,0.07083919749529632,0.16578159706240025,0.2121450386792106,0.25138352337967157,0.1994158576513501,0.0833392573336657,0.009451533298852,KuruYaprak
163.76176882089,8.33263888888889,0.1516926848033523,0.015777983712058796,0.9467620380075169,0.0002503601538654133,25131.5,4305.504068136215,0.01703649565685222,1.0,0.00407726811427074,0.03530614516308951,0.12676559149030903,0.2887010162947494,0.3438397575821959,0.1621954226023872,0.03782941032852682,0.001285388422945343,KuruYaprak
178.3877220299945,8.687137248894745,0.1512132559884713,0.01588512529188636,0.9513966721685502,0.0002540218705803929,25570.5,1950.5108745098114,0.08446024411999645,0.57421875,0.0027544208601367292,0.015395220588211805,0.1192108752678941,0.34510707481182024,0.26441650390584653,0.15601190305199844,0.08267080269595226,0.014433198816614007,KuruYaprak
228.57847325849093,9.97627951088518,0.12734028032822903,0.01307383158165904,0.9435205015661419,0.00017179779054329292,14290.5,2234.7606562376022,0.03595797735722689,0.9261083743842364,0.002413222369022053,0.028363874846770453,0.14374299890832848,0.2286916097001719,0.2605282652607851,0.24868756462508004,0.08211203182432318,0.005460432463992896,KuruYaprak
171.13958940071944,8.64966136822378,0.14840332544825618,0.014873213762964892,0.9540256118075976,0.00022258304572807185,40661.0,3262.6988137960434,0.04799919448907529,1.0,0.00018424239813084642,0.02213565602018682,0.20484571269882962,0.3150048349413086,0.2373843922330937,0.14834720387155664,0.06459817325357788,0.007499784581790028,KuruYaprak
161.18889782476322,7.810682835327819,0.17000289510663122,0.01762375040487618,0.9432325325550082,0.00031247094286903477,44817.5,3774.0440489053726,0.039540627910668036,1.0,0.0004472321155017687,0.020158356311243755,0.15592286352993984,0.37826376522230887,0.2787918390008001,0.11663549086609035,0.046949079924867076,0.0028313730277223963,KuruYaprak
127.78344131464189,7.341151900711281,0.16962990545068216,0.016940485147689373,0.9526265115304955,0.00028895778745157227,31793.5,3126.539434194565,0.04087148173204786,1.003921568627451,0.0005738501455260853,0.012789677638614067,0.1257184795302923,0.31765011058085724,0.31997339585199336,0.17971747903235435,0.04260421453731242,0.0009727926815242512,KuruYaprak
228.85621434665939,10.114658694973055,0.12079076804051664,0.014228549202045604,0.9214162204718712,0.00020363094771244886,32615.5,2797.5201038122177,0.052370590691004165,0.94140625,0.0006030512791044721,0.030745323031509467,0.21125817392354412,0.34476958630079135,0.26348649567208565,0.11859047085613025,0.02854883530556304,0.001998063629745726,KuruYaprak
116.80207852749164,7.060434057814329,0.17586988679470084,0.018120319257781407,0.9570915685504716,0.0003305745982309886,39035.5,3137.4023522138596,0.04983439324817686,1.0,5.217907475482239e-05,0.011949008118854324,0.16263158461602029,0.35922462612920075,0.2739372103817818,0.15248036104066803,0.039238245346907015,0.00048678529028724774,KuruYaprak
229.73388265631792,9.748861180195082,0.14446242411661817,0.014127636999081903,0.9420104774955756,0.0002009000440778753,19846.0,2893.0419611930847,0.029797057943479748,0.703125,0.0032262465533039017,0.04070673923860211,0.21826477050747947,0.2696763580916534,0.23028995289486923,0.18535676843951493,0.050861493278874556,0.0016176709941764533,KuruYaprak
171.9551509035055,8.18201133578453,0.17369456008140868,0.017146427606149282,0.9494919832870126,0.0002956079842976442,40995.5,3219.94650888443,0.049687682084975385,1.0,9.777592677681168e-05,0.037627934474513666,0.26832293342100605,0.3236365823179804,0.19130039589048628,0.14390414368850588,0.034690827014346545,0.0004194072648584288,KuruYaprak
162.52306588812613,8.442197321943501,0.1462796396445091,0.01541734939123743,0.9483738487284568,0.0002390135743944316,37947.0,4112.065470337868,0.028201179313604902,1.0,0.0016219793581470354,0.020852840647946132,0.14937965542639592,0.3292329676006006,0.2818227132157158,0.16442643707848684,0.04925441367945914,0.0034089929917227413,KuruYaprak
154.0430920349238,7.654826554089787,0.16648424948558693,0.016485235076111493,0.9542548284203174,0.0002734640439340145,41979.5,3049.887631893158,0.05671258563539739,1.0,0.0027285706763132394,0.05293806487430649,0.20913319307183165,0.3332137762326411,0.2476737826474468,0.1208879059434429,0.028542612113161094,0.004882094439330786,KuruYaprak
147.9419508872855,7.831306063172852,0.16621751685586797,0.01721740792944583,0.9445905708603426,0.00029826476049059174,40103.5,4005.4065264463425,0.031412242299167704,1.0,0.00010292202818611752,0.010486976773115133,0.16069653080934435,0.354556453928687,0.2935479257616538,0.14156476189086847,0.03591141046256774,0.003133018344051593,KuruYaprak
152.07936139345935,7.716191939398385,0.1795550733431134,0.01670484573624328,0.9578585045287024,0.0002806073932509327,42535.5,2835.6378531455994,0.06647523418494496,1.0,6.8215762867542996e-06,0.01204409131814952,0.16265145096099573,0.32859359441968855,0.24734251732881984,0.16072268018511013,0.08047245997996297,0.008166384229460581,KuruYaprak
315.4268119683619,11.450421457492041,0.12783445671263605,0.012358358317865149,0.926162778939034,0.00015347145826658692,13820.0,2162.684536218643,0.037130564952785446,0.51171875,0.008510335286445347,0.04445842668115153,0.15681200214436858,0.254076609891616,0.2668699975103158,0.1964018578619858,0.06839408126521423,0.004476689357376748,KuruYaprak
186.53173325764536,9.220812037437478,0.13566742912786312,0.013281516055802127,0.9559339862260491,0.00017713978073907163,24841.5,2839.0003331899643,0.03873082904206863,1.2075471698113207,0.0021372477213509058,0.04466582653562425,0.14035494935257387,0.2562455719588615,0.24477826286727358,0.22712306602293775,0.081084427178951,0.0036106483609013545,KuruYaprak
161.1138874171033,7.851798436899302,0.1778828107303257,0.015457204512318792,0.9557039277097014,0.0002403758654189474,23225.5,3150.6571851968765,0.029401712982721307,1.0,0.0006487678079034221,0.023562203201557195,0.13495962105524759,0.263561652688017,0.2760784672751609,0.221077354281219,0.07582642798318699,0.0042855057061821885,KuruYaprak
171.690867815268,8.465178446991578,0.16029864097792518,0.014173350338819151,0.9638609312275452,0.00020192992730453502,40957.0,3489.090730071068,0.042277906721802365,1.0,0.0013686834597099221,0.06054872998995053,0.2015341366035528,0.25990319345471985,0.22475968903151977,0.1571301628559183,0.0876493566175133,0.007106047985589649,KuruYaprak
178.81193214449573,8.80046083537589,0.15062108029240207,0.01528314396351525,0.9426725286341513,0.00023498337494379451,34060.5,3916.6369745731354,0.027901929948214416,1.0,0.00021458046109035895,0.023895921894111837,0.19835994944822682,0.3281953101059638,0.27375931085282984,0.130952782724218,0.04094561408541545,0.0036765304266181665,KuruYaprak
198.60576005923835,9.582300302167354,0.1322446824332924,0.013577763629917795,0.9438430107905837,0.00018537353849655249,27354.5,3507.8430374860764,0.0279356216868053,1.0,0.0008545520258871766,0.019106576956925504,0.14052501005263485,0.26902250402072925,0.2854525098609308,0.2084449917659196,0.07110152899039392,0.005492326325052895,KuruYaprak
227.64582962382866,10.134603202494086,0.1336662978970496,0.013170889336080396,0.9430934245592728,0.0001743158089713289,37940.5,3040.5983103513718,0.051569724858919315,1.0,0.00025084252450942123,0.035006175321637766,0.16853984757939972,0.29439068962501047,0.25971165077319436,0.15493098240249029,0.07835513844197602,0.008814673330256156,KuruYaprak
165.32777786789353,8.298748678393002,0.17740198497522247,0.016805897778426865,0.9619189537802341,0.0002839250193956336,36685.0,3889.2471462488174,0.030476655364840986,1.0,0.0003134933172482963,0.045233393650359915,0.2610794366570771,0.262373860676683,0.21826728371979567,0.1373702703735649,0.06806389303757994,0.007298368566165335,KuruYaprak
92.47086443615189,3.8543364481207605,0.5284382954227382,0.0896839660989736,0.9872767509604049,0.008067290536274883,24746.0,852.00417304039,0.42838221176517083,1.058252427184466,0.00011554792815546096,0.03385667987893118,0.1174449845854519,0.14552660175376073,0.08519711961920207,0.07766466327730197,0.4913821351286924,0.048812267826978215,KuruYaprak
84.5289838193217,3.2707706320884533,0.6373550958785574,0.1437125107187203,0.9872657926192819,0.020708379929480224,15180.0,653.4112479686737,0.4467951221432101,0.7511961722488039,0.0,0.010998235964290816,0.06533508300771279,0.06698243384257548,0.07021687825510116,0.02955154718132742,0.2672220865881342,0.48969373515933234,KuruYaprak
73.32554095780287,2.562507358948391,0.681742454439825,0.15402383482705445,0.9910110489384406,0.023778297787741064,14070.5,630.6589418649673,0.44455989267392176,0.33203125,3.590303308818071e-07,0.02713347790283849,0.07127075195301623,0.08781684426686964,0.030335310393642418,0.013869341681964117,0.2256037693394231,0.5439701454303891,KuruYaprak
87.2216315990216,3.391067543132312,0.6264896555440966,0.13610945107141165,0.987586672816532,0.01857538063838122,16055.0,673.0681020021439,0.4453507170952667,1.2171052631578947,3.17143458945595e-06,0.01700044519758435,0.06756992714067507,0.06599067239190297,0.07489294912289428,0.03240081188720542,0.27115191291318935,0.4709901099104332,KuruYaprak
67.72384842968862,2.296273909073351,0.7054846974202211,0.1706962707548509,0.9915926288782778,0.029190647586496185,13454.0,595.2447284460068,0.47716674782250285,0.35714285714285715,2.5730507046529416e-06,0.02694839776726892,0.06867059445838172,0.08288400687410755,0.0279058718213422,0.012403121649031307,0.20675054811932317,0.5744348862583145,KuruYaprak
75.61834025674993,2.6110305381342664,0.6727716461962651,0.15939254226551203,0.9919062721920129,0.025452587629102123,15880.0,634.2152915000916,0.496120238742894,0.4978165938864629,4.1228649662927335e-05,0.038409064797735495,0.08324106253816951,0.08929012522964314,0.033141311944649164,0.01818680108759478,0.19616088867157586,0.5415295170794431,KuruYaprak
75.93576088523375,2.7332000312378764,0.6541759042555091,0.1527167237951865,0.9924902461337087,0.02336883897218818,17416.0,651.3868633508682,0.5157987536881669,0.6394230769230769,8.072198605992596e-05,0.045099295821775534,0.09750031115947129,0.0911318311502898,0.034419220569034466,0.02286119648051044,0.19501300886535827,0.5138944139659742,KuruYaprak
85.67386556552466,3.0990339202468635,0.6119314478323976,0.14191972987225926,0.9924893949169892,0.0201800751493368,20032.5,699.8549013137817,0.5139596190267779,0.7783251231527094,0.00017155665977302274,0.05734013576124827,0.12185878379653582,0.09625764734590085,0.03419763901649192,0.026550831514205786,0.1786194446037411,0.4850039613005772,KuruYaprak
90.59000171207867,3.130606737793005,0.6149221824924503,0.13648128234167123,0.9916474782371089,0.018666504280411153,18195.0,635.2102384567261,0.5666657249020236,0.9273743016759777,2.9859355851670172e-05,0.05088698443236721,0.11946662454025885,0.08263256596571335,0.028543150658657417,0.025711059570273257,0.19580856024020385,0.4969211952351486,KuruYaprak
90.68311206927278,3.0030542489665972,0.6447190881710327,0.1510198097105823,0.9911812723413724,0.022849587062172362,16402.5,626.4823158979416,0.5251728638818655,0.9411764705882353,2.991919424015045e-05,0.04253803327965322,0.1141779282512044,0.07145230162366543,0.025170060700022853,0.021370143516358308,0.18449587354444907,0.5407657398888807,KuruYaprak
95.69826144090914,2.9824193669500794,0.6502798862432146,0.1461240444175631,0.9902304519900595,0.02140911556004267,15034.0,618.5584366321564,0.49376799963987433,0.5707964601769911,0.00014989516314315373,0.04055008233756068,0.11054059196904087,0.06359049479156961,0.018515134325186203,0.013866110408986188,0.21988555309785712,0.5329021379051304,KuruYaprak
88.97328378808423,2.610269202349962,0.6921682984913239,0.16693978973101709,0.9899593434992611,0.027923751892433294,12903.5,646.1147855520248,0.388416822625074,0.38188976377952755,0.00011261584711992631,0.03560791015619565,0.090625538545358,0.056235818301844306,0.018034871419243304,0.009215949563405048,0.20216291838970396,0.5880043777756038,KuruYaprak
79.08775080497652,2.4304898656765634,0.7070996253333722,0.1801331556292704,0.990788743133658,0.03249603214020419,12350.0,642.4163012504578,0.3760483751000547,0.3346613545816733,8.060230928296535e-05,0.03445386699596457,0.08326140759025283,0.0561948290057353,0.018731150907600084,0.010810044232520263,0.1893116072109552,0.6071564917461628,KuruYaprak
96.66635625420231,2.6152479064541456,0.7002204513177905,0.1744751237141061,0.9883289845974028,0.03048497532384066,12300.0,649.5878742933273,0.36630188755660653,0.3058823529411765,4.200654871317126e-05,0.03068063773356225,0.07874516505809064,0.06028645833324132,0.02436643114273242,0.01558897729011101,0.18693398868307898,0.6033563352089444,KuruYaprak
107.31075956362562,4.1937982686945485,0.5558943086383592,0.1244189984506622,0.9884456450007422,0.01551085226100006,24553.5,824.5067020654678,0.45387356768708087,1.4596273291925466,0.0011806114047163362,0.05059413535914461,0.10591089585231998,0.11918699975089041,0.09394028607522428,0.020613128063694013,0.371483836453937,0.2370901070385475,KuruYaprak
88.58434247044154,2.5039594446846225,0.7020656436372699,0.17535243669024214,0.9886796858371583,0.030791821830847797,12224.0,624.9604581594467,0.3932947283757763,0.29918032786885246,3.1115962009756465e-05,0.027249265184547875,0.07021711760865508,0.06328262628283846,0.030085724475291082,0.0196338728362139,0.19089929917250303,0.5986009784764148,KuruYaprak
74.97520821318521,2.6806283941271576,0.6564244407625768,0.16118596602678278,0.9916875118089457,0.026021577858793145,16070.5,663.4873688220978,0.4587477364926722,0.45188284518828453,0.00016617120480979557,0.034349149816124046,0.07842664531620996,0.08698538985893585,0.04377614937569911,0.02366386862358519,0.1859215829883807,0.5467110428147294,KuruYaprak
81.02407996623634,2.8818980229958493,0.6263948129290273,0.15453521988744723,0.9915600487225328,0.023919985097992758,18835.0,680.6416963338852,0.5109029229680583,0.6177777777777778,0.00021230660232810753,0.034295115751326335,0.08812555051303954,0.10711939194606815,0.055175123027642506,0.03196752211621958,0.17527166628343374,0.5078333237584162,KuruYaprak
71.69588026540018,2.6205991235341237,0.6534064393078712,0.16654528393591753,0.9914968079060485,0.027773831929028995,17203.0,568.0975408554077,0.6698356142908808,0.7925531914893617,2.932081035534746e-05,0.01831060671336054,0.07626426547169735,0.10569051106754704,0.053325458601327924,0.034990497663855896,0.1698564118027435,0.5415329278675866,KuruYaprak
78.20871996347257,2.8440612084293297,0.6354783556307384,0.16068064961762774,0.9914738263678229,0.025858097813067932,19679.0,627.411247253418,0.6282149830180545,0.9485714285714286,1.1369293811257178e-05,0.015094951554817649,0.09421763700583048,0.12894077674995638,0.056426044538823175,0.03346007104008372,0.15634729721943075,0.5155018525957207,KuruYaprak
142.24378026179116,4.747928125600465,0.5942025407946431,0.3894061414255998,0.9852770883238116,0.15168154654674698,23422.5,741.5361397266388,0.5352768585440231,1.644736842105263,2.2618910845553752e-05,0.0142166436887038,0.08980856502743649,0.11732638489948395,0.09897502824356831,0.051090913660308025,0.03138643152568764,0.5971734140424404,KuruYaprak
135.67554870722225,4.567251477796772,0.6207843957333407,0.44471877873147936,0.9839464622055164,0.19781442808658486,21247.0,707.6366450786591,0.5331959626165939,1.1818181818181819,0.0,0.007136924594045482,0.06128635780474717,0.11699960745999301,0.09958753398805267,0.04910356110210027,0.026248168945272706,0.6396378461042628,KuruYaprak
103.39993291341924,3.8631854184686936,0.6742969271080349,0.45082148002600014,0.9820329482186325,0.2032569729031357,16134.5,659.0264722108841,0.46683096530422596,0.53515625,0.0,0.0008966184129888279,0.019194958256710904,0.08229818905088543,0.10239754471108757,0.048319139667511994,0.03502783681826791,0.7118657130810213,KuruYaprak
92.14403524185136,2.9234807976497925,0.7515795979295874,0.5479993291938505,0.9795085762949995,0.3003155961762948,11332.5,597.6295043230057,0.3987232235419931,0.3828125,0.0,0.0007650936351091267,0.013736261105983945,0.05965247060729255,0.07295442468968645,0.0333710913564135,0.035753496955368565,0.78376716164862,KuruYaprak
74.07163472282137,2.4682731251200174,0.7848523714316502,0.5016367536753896,0.9815653860225604,0.251676748150936,9513.0,587.6467498540878,0.34617418925642224,0.28515625,0.0,0.00042569029564886016,0.012472953048387829,0.0530880198758381,0.06056279201124334,0.02511770211010257,0.03416424919572026,0.814168593461533,KuruYaprak
105.78644339015909,3.7692023650757798,0.6030039877709588,0.1399903189644267,0.9862555160566172,0.019642159955088185,19422.0,765.6366459131241,0.4163498281357294,0.8986175115207373,0.0006250119676767426,0.035072595932850885,0.08260946834775997,0.10725576363341476,0.07052462708705536,0.01501153684127611,0.4852107627711654,0.203690233417275,KuruYaprak
107.768045207971,2.83145306192321,0.6846721089752956,0.15469722970378752,0.9789850167557528,0.023988970519704014,9011.0,585.9066346883774,0.3298572408450382,0.2265625,0.0002554500804224044,0.01722693349798229,0.06174519856761411,0.059410723517832116,0.01667127422255421,0.015233656939315051,0.627964333925972,0.201492429246782,KuruYaprak
68.13266952614306,2.0779197303921544,0.7293277635985136,0.1574679596689137,0.9839439339247341,0.024865409762740754,8348.5,582.3502862453461,0.3093497212128451,0.171875,6.223192401951304e-06,0.009188364066315634,0.05016647039667589,0.05590203977090119,0.01668425915285443,0.018773157456313323,0.6385391534533761,0.2107403325096355,KuruYaprak
90.95288566897273,2.4893813977796917,0.7019816077677546,0.15287183194635778,0.9802611304318418,0.023427003344346387,8862.0,587.9066350460052,0.32219951807179587,0.19123505976095617,4.5537013633508976e-05,0.014483044194218093,0.05050587373613615,0.05765009861357622,0.018820310106435728,0.0159746357038666,0.630528049842022,0.21199245078858575,KuruYaprak
82.82819004409288,2.4309300058871464,0.692997080659977,0.14874731451308298,0.9829328146382238,0.022175862814561895,9172.0,582.0487706661224,0.3402163316030335,0.242914979757085,0.00011632582720570486,0.01912943522132497,0.04940957462078856,0.05716391170717378,0.01902525658698076,0.017214965820286286,0.6281169816549853,0.20982354855972876,KuruYaprak
97.64234374999901,2.4774721861783897,0.6976873366632395,0.14481316129658534,0.9797931870539026,0.021024721529334878,8918.0,573.847759604454,0.34031724061003715,0.29583333333333334,0.00012763528262848178,0.020375629499815716,0.04879934273506646,0.05467475442317022,0.018380976658213366,0.018970683976686793,0.63159401089441,0.20707696652848295,KuruYaprak
88.87481649185271,2.5187622999566743,0.6820982236743227,0.13884682845048757,0.983896643137815,0.01932966414065944,10107.5,597.00208735466,0.35637063822748355,0.4085106382978723,0.0004518396714147517,0.027078486423825095,0.05509607651646003,0.05896283318005705,0.019350298713205753,0.02211022470508274,0.6217990052456811,0.1951512355427475,KuruYaprak
89.40483206578982,2.7228309724624236,0.6475610207446698,0.13045545183613247,0.9859011651614645,0.017059941873624303,11672.5,606.0559104681015,0.3993451043221302,0.5882352941176471,0.0009208529603233497,0.035246486289774635,0.06469876158461325,0.06363716873458425,0.02171786439181734,0.024095423081305196,0.6104544845272548,0.17922895842880124,KuruYaprak
83.41455512903522,2.649294862552782,0.6356386218612645,0.12643254745443672,0.9874856860862354,0.01602325407837937,11558.5,559.3696182966232,0.46420903899575167,0.9235294117647059,0.0015232460171545384,0.04319404153256276,0.06635837928911444,0.055125756357146255,0.01885561475563911,0.027271644741839577,0.6183666154440627,0.1693047018609549,KuruYaprak
125.95085285706861,4.524324028017871,0.4744663280475119,0.06062380028529233,0.986349845604011,0.0037007773216674324,22046.0,738.8914785385132,0.5074325837962868,1.2291666666666667,0.015509571748597656,0.08197290757110652,0.08605514227162113,0.09804310518137611,0.06882988424851628,0.08444423301534311,0.4971041211887329,0.06804103477318049,KuruYaprak
114.41532385380128,4.466756355728357,0.47054592324738637,0.07941138561828753,0.9881918920269912,0.006342646880392951,23922.0,781.7199051380157,0.49193192590503576,1.503030303030303,0.012625481100624116,0.07182030771281932,0.0981100044996971,0.11525807100166235,0.07720342897889565,0.0325219247854896,0.4671292174089074,0.12533156451037863,KuruYaprak
86.61502101054715,2.9124810319347434,0.6724620054505608,0.15860574695732305,0.9822220958281045,0.025219728807029954,11394.5,662.2569209337234,0.3264766500742917,0.448,9.753657322289054e-06,0.01192974015776366,0.05416750440402273,0.07421396292880832,0.03641411276419074,0.018608781403157953,0.6364989037597518,0.16815724092345666,KuruYaprak
117.0975069534504,4.521143235173761,0.4923892955065964,0.07791165444451797,0.9870566294829386,0.006106754772186526,22843.5,738.8498455286026,0.5258478904970509,1.7062937062937062,0.012746534160519764,0.0708498487284458,0.09878103218811518,0.11287363089749931,0.0674562342025625,0.05992401721421629,0.5137567258340813,0.06361197677303407,KuruYaprak
119.90801081614774,4.281052765162217,0.5222088791068024,0.09199111904829417,0.9855007562018486,0.008516904757074091,20455.5,734.4234417676926,0.47657022221042045,1.0757575757575757,0.007541432100172316,0.051467117608683714,0.09896383846492252,0.1047899433209185,0.059924555759712464,0.04393855076203476,0.5552503398811994,0.07812422210083055,KuruYaprak
120.8873482554743,4.183411668588791,0.5520158416228774,0.09800108691751525,0.9850898168488802,0.009662922974554622,18652.5,742.5655754804611,0.4250864765459217,0.724,0.0059937720205178145,0.04524075377214297,0.10954679601316003,0.09080307904397907,0.04282956590832923,0.046821265127073255,0.5725387274041509,0.08622604070912088,KuruYaprak
89.41122334258272,2.924257632280752,0.6738081454471248,0.1446592903600706,0.9836588016362904,0.020988443507008604,10814.0,610.3574261665344,0.3647772654549086,0.41015625,0.0,0.005645153569231581,0.0627461152917241,0.07382040584777334,0.02525281719129111,0.007947256050845711,0.44340568991200735,0.3811825621356008,KuruYaprak
77.44737184916795,2.2924264255334403,0.7446492657616994,0.15924083366843547,0.981622051179122,0.025427643726481076,8242.5,567.8893895149231,0.3211746881404065,0.2891566265060241,0.0,0.0018563064874358931,0.04458318972113295,0.06253500545716559,0.019899674957843397,0.006837553136478538,0.4740219415395648,0.39026632869885286,KuruYaprak
98.392111522611,2.4836960093473452,0.7378748801256114,0.15536537800733854,0.9768022121042244,0.024196390197300088,8023.5,568.4335460662842,0.3120429113719621,0.23015873015873015,0.0,0.0017769009459225342,0.04598795572909649,0.06328980688945611,0.017859963809715385,0.006636735504738656,0.4761181401264183,0.3883304969931268,KuruYaprak
75.95540582348069,2.326630022106851,0.7394054986993759,0.1585857866402447,0.9815064519198523,0.025209129562163358,8237.5,570.6345567703247,0.31789899500138274,0.1953125,0.0,0.0012407489851390383,0.0406128528070765,0.0653666178384419,0.020759253408362918,0.006294400084242848,0.46874311858460965,0.3969830082906012,KuruYaprak
73.06517526311926,2.378535509179153,0.727444858276661,0.15313949214631556,0.9829555403172873,0.02351486227870379,9045.0,574.1076453924179,0.34485122607354035,0.18359375,0.0,0.002775723326435715,0.03696301030172055,0.07337275486355223,0.026734834558782714,0.007228357651643383,0.46420599245486777,0.3887193268414717,KuruYaprak
82.2536756596007,2.725892355103711,0.6909495734948543,0.1459024761880654,0.9830153958079835,0.02135015630124297,10792.5,605.2619732618332,0.37020744010072093,0.265625,7.77899050243913e-07,0.005212462182130525,0.03907644234445629,0.08311707739723834,0.03809916178379601,0.010647223977465363,0.4414059508073842,0.382440903606953,KuruYaprak
95.07875441536689,3.2603532295269773,0.6343284026309015,0.13288416223859217,0.9843787672251492,0.01770089569988908,14967.0,717.955404996872,0.364879684708394,0.549407114624506,2.303777956491585e-05,0.009037631165733757,0.050844140146215314,0.10854372510706477,0.05797388413364312,0.017432777554354514,0.4027127135027558,0.353432090609142,KuruYaprak
62.26782018934918,2.4301628279988123,0.669129659844331,0.1281233241097536,0.9842221334646828,0.016487928080836864,9804.0,608.274166226387,0.33297714279129836,0.3441295546558704,0.00013858570772037687,0.019716749004259126,0.0729464063456301,0.0531308043236015,0.010960896809879104,0.35952226227350215,0.4835835176348316,7.778990502439132e-07,KuruYaprak
90.1018280979649,3.219045724600983,0.6245007359155352,0.12814275073756246,0.9852099278072413,0.016463033161008476,16004.0,682.1808017492294,0.43215487895913807,0.8421052631578947,4.4998468137186254e-05,0.009231148514079052,0.04683251474410744,0.11199298933423472,0.0712054682711842,0.024932262944202123,0.3884794347420544,0.3472811829804749,KuruYaprak
83.70937902489243,3.0984359080640718,0.6327885994925773,0.1341768156332615,0.9873011336478671,0.01804575617377548,16806.5,611.5950142145157,0.564623917801849,0.9837837837837838,0.00010196461397043272,0.010273473403017413,0.05376293705950743,0.12262483484586068,0.06594328038822657,0.023895024318284608,0.3664115756160159,0.35698690975359126,KuruYaprak
80.7214533172315,3.022163801182112,0.6406756889749907,0.1419968625073656,0.9877693099698173,0.020207161707304966,16785.5,573.1686071157455,0.6420655299471933,1.263157894736842,9.460449218735574e-05,0.009504729626210986,0.051642563763707974,0.1259487376491644,0.06382284725403863,0.02339591231997041,0.3524069991760862,0.3731836057171081,KuruYaprak
79.21217290224655,3.099065473615781,0.6333756298906074,0.13859556168572337,0.988594715732665,0.01925216934911271,17798.5,585.227482676506,0.6530461020546258,1.492537313432836,0.00012709673713215907,0.010283346737116662,0.057279220281775345,0.1331621357036877,0.06485853008185567,0.02369600183819912,0.340872371897458,0.3697212967212495,KuruYaprak
82.20688711973449,2.86498697916652,0.7057532699165001,0.46388244376785437,0.9908658434944835,0.21526355790944013,16055.0,597.8965299129486,0.5643754425532149,1.5038167938931297,0.0,0.017891977347552355,0.07834867589602014,0.08601110121769961,0.05737232881425067,0.017771283317987576,0.025783464020334726,0.7168211693846291,KuruYaprak
84.25787685325048,2.892999822784359,0.7085213963051324,0.4441754645771439,0.9903313196452268,0.19735256688487302,16002.5,598.4823169708252,0.5614292738856179,1.3517241379310345,0.0,0.013879454369617303,0.07445122213913272,0.09099994734207927,0.06043802897126193,0.015864413392285833,0.02748233570767893,0.7168845980764181,KuruYaprak
83.2206651137754,2.8101019289454756,0.7248928547214053,0.48532191167722566,0.9899379289635181,0.23556572505864942,15278.5,610.4823155403137,0.5151626955173135,1.1011904761904763,0.0,0.01016349044499062,0.0685545678231184,0.09139733407997694,0.05898234049470165,0.01444223441327452,0.023828962737402665,0.7326310700050093,KuruYaprak
100.95818233972113,3.3827420343135257,0.6777409744900843,0.49371215581632233,0.9891762676214902,0.243768702808039,18173.0,688.1807998418808,0.48220464241729655,0.9182692307692307,0.0,0.0114524093328563,0.08269144693997797,0.1129583620555874,0.06657260071987386,0.015450870289498469,0.02265619016157723,0.6882181204991027,KuruYaprak
94.1746211342961,2.9270780318866483,0.7360162403419344,0.5848556375939571,0.9881969369946604,0.34206714171025837,14825.0,653.0681045055389,0.43680501803394295,0.6652173913043479,0.0,0.0049217074525047455,0.06511080872768864,0.10058719410600458,0.053554998659538354,0.01136115579042383,0.01733847225410989,0.7471256630082042,KuruYaprak
85.99624851318937,2.6411238315790966,0.7622685400807756,0.5775466537362349,0.9879893886805846,0.3335956957058598,12993.0,638.4406864643097,0.4005697881005025,0.5247933884297521,0.0,0.0021285113166327817,0.05438573500681039,0.09629833745006748,0.04446596631810001,0.008731258616714609,0.015089386584689309,0.7789008047054594,KuruYaprak
66.31371379096933,2.228205813268944,0.6944688753428526,0.1290075174968877,0.9783592138217859,0.016723114157054905,7890.0,573.3624782562256,0.3015979116163707,0.20634920634920634,0.00013547411151940115,0.021421544692062897,0.07046377144597088,0.03545963062954146,0.01666427313110204,0.6392800723795394,0.21657523360873784,0.0,KuruYaprak
85.70198503880587,2.226659743247788,0.7191598659498613,0.16717843666733137,0.9852651066449312,0.028003891176259652,8884.0,561.0193330049515,0.35470128258317,0.2701612903225806,0.0,0.014383652630952317,0.08974322150721598,0.03194568110442428,0.0049689199410157,0.004671642827045576,0.5246861476516198,0.32960073433620035,KuruYaprak
72.21666630622721,2.154777459390589,0.7154575025449337,0.16315948948354972,0.9876028223736426,0.02667610872525352,9007.0,561.906634926796,0.3584773383385877,0.204,0.0,0.014405792834690031,0.0885074989467093,0.033927408854114875,0.005474195293343361,0.004757151884183925,0.5214603798054238,0.33146757238000885,KuruYaprak
109.08688292964075,2.3864405216742988,0.7206506912541675,0.16615194854441379,0.9818280058290496,0.027655696022787602,8556.5,557.3208485841751,0.34617479150173963,0.21428571428571427,0.0,0.019954068052972004,0.08492270076963142,0.034544282800958295,0.0065224441827412705,0.005210846545641562,0.5145936255353668,0.33425203211116256,KuruYaprak
59.40989192858375,2.100236567666223,0.7053160888663859,0.1534360699814291,0.9912680275027353,0.02359268088291821,10813.5,580.9188270568848,0.40266626375391473,0.3374485596707819,1.2865253523264717e-05,0.027145625095699996,0.09109700520819432,0.043491617838475286,0.009188962450200438,0.006953041226245521,0.5139022527948656,0.30820863013126987,KuruYaprak
72.16799246383395,2.5486405318866887,0.6822123526532339,0.1565798327326763,0.9915134238533884,0.02456525289523989,13157.0,632.0142802000046,0.41391670710980183,0.5714285714285714,5.582921645212076e-05,0.031286441578536814,0.08237412396586692,0.07241216921327796,0.01866766237742248,0.011618520699277607,0.22107735428121925,0.5625078986664209,KuruYaprak
77.28020256631837,2.751671802912244,0.6506384593571358,0.14633162012583412,0.9920019122550279,0.02145454724594258,15328.5,631.1686080694199,0.4835247856427056,0.8256410256410256,0.00046757716758507104,0.04548890356917077,0.08962773341744901,0.08066747328802026,0.022749478209217727,0.014921898935332618,0.2242135440598603,0.5218633913518383,KuruYaprak
69.99745931552422,3.0859099715251834,0.6524033441806676,0.437231635292958,0.9934058734011034,0.19122439395748667,20325.5,693.3940041065216,0.5312402079993104,1.125,4.45795994178242e-05,0.034715480430400465,0.09665617101317969,0.08923794615488834,0.08125257305058065,0.026849305395945534,0.035982498468082574,0.6352614458859791,KuruYaprak
60.85131606533272,2.761737627955451,0.6495827198173661,0.40084328233085503,0.9942520133713394,0.160735001252085,20744.0,660.8670916557312,0.5968622544179232,1.4697986577181208,4.8110064338161946e-05,0.03147989908849363,0.09786676145052467,0.0934196322570572,0.0855132458255435,0.026668593462735025,0.03016435211775447,0.6348394057320275,KuruYaprak
70.01378880718642,2.922703076941385,0.6812186442737898,0.44156628638060436,0.9930211248952051,0.19500114985649425,19259.5,629.4528790712357,0.6108413432649311,1.3986928104575163,6.324917662367805e-05,0.028389545515428487,0.09108557607599456,0.07780342850018764,0.08571526022505299,0.025537588082068845,0.02610443713614303,0.6653009152869748,KuruYaprak
78.57505597306007,3.009772548418713,0.6834653836765439,0.5164216528767214,0.9916671844966835,0.2667027380435981,18690.0,708.4650703668594,0.46793149744174184,1.0495049504950495,1.795151654409028e-05,0.019905658796691435,0.0838325650082973,0.08255154478771101,0.0892328598918675,0.022301109164334816,0.02275677849261261,0.6794015323404152,KuruYaprak
71.15937638167952,2.3448648957131732,0.6887142928910467,0.12461091941871735,0.9777949815968062,0.015594413022071853,7835.5,580.0904005765915,0.2926073435950022,0.20634920634920634,1.4600566789193417e-05,0.010473632812484018,0.06021004471115198,0.047100590724499174,0.013177490234354884,0.34274698893176914,0.5262734207444477,3.2312729779362484e-06,KuruYaprak
71.33391180675449,2.5314578827853618,0.7437582993036356,0.5692167738355292,0.9911859686081921,0.3240171230997076,15112.0,646.7838312387466,0.4539557273887444,0.6282051282051282,0.0,0.01281074075135913,0.06816232718663004,0.06960144042958129,0.07279034782847345,0.01768415862436025,0.01879386153872776,0.7401571236393423,KuruYaprak
60.948951635187626,1.8230066560937908,0.7537970838005889,0.17462390134687786,0.9881156943776618,0.03056948036985497,7909.0,511.1025924682617,0.38046549135065766,0.424390243902439,8.257697610281517e-05,0.01648763020830817,0.05442875880812771,0.04488016764316066,0.008999334597106362,0.005606677485438748,0.4555382223683308,0.41397663191189876,KuruYaprak
74.5458740778771,2.1158750390474252,0.7326538892095671,0.16923442259183563,0.9871040296167968,0.028710496242605136,9190.0,602.3330408334732,0.3183112598667492,0.25,3.1834022671520084e-05,0.014514339671393294,0.06899773092820354,0.051481239468365046,0.009664617800230348,0.004918416341138327,0.424716485714732,0.42567533605174,KuruYaprak
75.38527223603771,2.0770730758601865,0.736675922568565,0.1681181448716247,0.9872667909145668,0.02832991122726817,9360.5,587.8061294555664,0.34044008536467285,0.203125,1.1488970588217772e-05,0.014501414579481548,0.07698292451734573,0.04774654612814402,0.008077943091286687,0.004935350605078254,0.44722200281411545,0.40052232929243403,KuruYaprak
114.53262712958751,2.3717739120770256,0.7408336741555457,0.1648434914212881,0.9820883553620625,0.027228153026868943,8832.5,562.4335459470749,0.3508739113702067,0.3037974683544304,0.0,0.01913135004975634,0.08490361232370619,0.04325483733525872,0.009849099551915114,0.006556013518678717,0.43217749502078673,0.40412759219837213,KuruYaprak
110.92850230379936,2.40038295066794,0.7245364878743636,0.159736964320722,0.9834443259819869,0.025573962867141437,9831.0,575.931020617485,0.3724488332618818,0.4429223744292237,1.5557981004878265e-06,0.02113312365958785,0.08716155407462188,0.044919960171500066,0.011367917528322112,0.007826801374834866,0.4160922181366202,0.41149686925488665,KuruYaprak
79.95621819131884,2.3641227833044125,0.6925464305033766,0.15320367192909706,0.9902139974699059,0.023520517471504264,13045.0,605.9554060697556,0.4464497854911129,0.7227722772277227,5.098230698521644e-05,0.03500551709936448,0.1012077181945453,0.05450140261174281,0.014673509784750889,0.010718371821368445,0.4017748066017155,0.38206769157800147,KuruYaprak
87.80556549764125,2.9794671520567513,0.6753682736268476,0.3786125183205009,0.9908402662537169,0.14343323153395876,16502.5,629.796024441719,0.5228291287693014,1.0689655172413792,0.0,0.02218705719589139,0.08918343338298279,0.08778812184039911,0.04980720071224015,0.018679510378341587,0.034574561025529624,0.6977801154630894,KuruYaprak
97.69484329944731,3.489579548731043,0.6046654345922389,0.3102038622330187,0.991105510543844,0.09631833516687,20249.0,725.2934982776642,0.48371090196169014,1.493421052631579,7.360121783077026e-06,0.035885739793909695,0.10611644071674983,0.10710323558117847,0.06265192966825608,0.03199020086545362,0.05535026999072459,0.6008948232604188,KuruYaprak
106.99033484716846,4.2498309844768265,0.6183201246417103,0.44690974419189694,0.9916415156023264,0.1997651305501295,22745.5,793.4772633314133,0.45397964250953804,1.1576086956521738,0.0003535251991416174,0.04774157954190018,0.1463836669919641,0.10531179390685518,0.045784505208263444,0.024011589499044222,0.025975605085744917,0.6044377345655603,KuruYaprak
71.61138978998349,2.5923085171567926,0.6656810825667483,0.1271661041391088,0.9828984424255679,0.016229279596462465,10915.0,637.5878739356995,0.33740654792509034,0.32669322709163345,0.0,0.010394107594193699,0.0766076181447973,0.06521600461463697,0.021693390490928888,0.20715828689842825,0.6176530426614346,0.0012775495940544265,KuruYaprak
96.88856550064514,3.8487509461503193,0.4944960491476682,0.057613748712359775,0.991732924057791,0.003344018299298713,19234.0,641.6711342334747,0.5870221247129278,0.946236559139785,0.020580456303583787,0.12197110045171339,0.10530006558271307,0.04015143899350489,0.021931966145799866,0.08820441750905669,0.45351125679694887,0.1483492982151535,KuruYaprak
79.44066024785961,3.3686217890954175,0.56568962659699,0.09751778077361717,0.9877890728858403,0.009546903489551754,20146.5,793.9970343112946,0.401579663635275,0.673469387755102,4.021139705876219e-05,0.03717699237892611,0.13538208007791838,0.1065571504479072,0.03952068254053403,0.2260879217406174,0.45497927198153576,0.0002556894339763264,KuruYaprak
111.67458388900556,4.589505073168791,0.47694853113637026,0.09108306293965066,0.9855288173361652,0.00831631203218467,28330.0,922.4305838346481,0.4183974710348167,1.1232227488151658,1.9088445925215984e-05,0.02140885895370508,0.11974277870309546,0.16309581083385036,0.12116878733896949,0.036893837124637355,0.4080832687072511,0.12958756989104,KuruYaprak
107.81794605740758,4.91123785022588,0.4432385549889678,0.08022467321239801,0.9866842733993935,0.0064543160193966205,33260.0,1036.0285588502884,0.3893934612367322,1.0121951219512195,1.7951516544090362e-07,0.013722258923079558,0.12512649835305664,0.1765570547063789,0.15837174957849606,0.059566722196600225,0.2563626158467291,0.21029292087896834,KuruYaprak
115.51765075331252,4.918905108611865,0.4456815978267662,0.0630994259287003,0.9855429650651863,0.004016651285979077,26730.0,854.6315921545029,0.4598867923764727,1.2460732984293195,0.005138322418803434,0.057457778033000555,0.10406542011319904,0.1387774299170676,0.11131370394820635,0.09679110657920291,0.4229062547864257,0.06354998420256847,KuruYaprak
79.72394050665325,3.4629771752449425,0.5821871961448767,0.12344610530121417,0.9885167919849527,0.015279792710086912,20836.5,750.0802946090698,0.465392223245622,1.0913978494623655,2.369600183819915e-05,0.02161362591908467,0.10474578259022005,0.12966320561407907,0.06594513537826946,0.05056768679143643,0.5415034275420658,0.0859374401614804,KuruYaprak
114.64254956026292,4.490356833909858,0.48772732085216575,0.06437317375161214,0.986158362714416,0.004179326893695659,22543.5,753.5361394882202,0.49891094996346375,1.420731707317073,0.01170546587773949,0.05438615387552975,0.13107521206704875,0.12692212871457345,0.041429886163386526,0.1581381405098692,0.44215805951219284,0.03418495327813411,KuruYaprak
104.65680013395965,3.760839295583269,0.5441599377300544,0.11868525458507666,0.9886438048567134,0.014126710107153988,25142.5,859.6193990707397,0.4275687021000071,1.0829493087557605,0.0002359427657778264,0.031615373200013036,0.15693155924455218,0.15720400342730298,0.046842148724652775,0.02625355440023569,0.4100757673668682,0.1708416508690714,KuruYaprak
102.26976251621659,4.25909375300347,0.522863895669559,0.1064367738620089,0.9856276630057215,0.0113617967076985,23879.5,829.2518683671951,0.4363773250032068,0.9181818181818182,1.8549900428893345e-06,0.016394102807113467,0.09642519483364574,0.1388506721045675,0.10612410003047527,0.029228001014814476,0.46749453077057956,0.1454815434472351,KuruYaprak
78.51618850021464,3.2725542910177636,0.6283192194968417,0.13776705550644955,0.98512487757561,0.019032463221356703,14953.0,690.2985501289368,0.3943340460950172,0.5458333333333333,0.0,0.006233065736050538,0.06032882391228538,0.08923124425537851,0.07115861481300413,0.01958761776191865,0.5653170716520173,0.18814356186781947,KuruYaprak
64.02300290152769,2.3988564494425186,0.6607768066003727,0.12178307851527781,0.9808974704939832,0.014905472687050482,9278.0,607.7888845205307,0.31561579231508935,0.3170731707317073,0.0001359528186272436,0.02620089661837301,0.07263165642222372,0.044458366842763025,0.020121735217493827,0.6325640510100644,0.20388734106892878,0.0,KuruYaprak
85.48489320513698,2.5767360360197884,0.7082248428691147,0.16129515136374692,0.9772722098819592,0.026082953416954893,8739.5,590.5756813287735,0.31488018463434503,0.22265625,0.0,0.0032633463541616877,0.04475199381503586,0.06087179744935562,0.027834723977439125,0.019217637005945004,0.6738952038324582,0.17016529756407853,KuruYaprak
77.03586703431355,2.4264026155805554,0.7266917783988325,0.15995852537370964,0.9763536369032795,0.025648340004025973,8551.5,578.1492756605148,0.321493496757298,0.21653543307086615,0.0,0.0011716954848327709,0.018592086492771876,0.05491560393680345,0.05290365780093028,0.009868726543336644,0.4659802006733087,0.3965680290664904,KuruYaprak
81.87986307850318,2.6742538777152993,0.7086833672117173,0.15479167723835363,0.9774685112148767,0.024016719228944192,9700.0,581.7644997835159,0.3601531068532989,0.2265625,0.0,0.0012360815908375744,0.020919261259159255,0.06359827378207206,0.05936171587766673,0.009813615387546284,0.4518008961390166,0.39327015596217557,KuruYaprak
83.02055872440812,2.704557787269321,0.7009459824221911,0.15054503073830677,0.9759797016109195,0.022720923673872427,9912.5,658.3746708631516,0.2873735783738924,0.28063241106719367,0.0,0.0021660299862099304,0.018040376550983502,0.05590042413441224,0.06531054926843587,0.01899545706951756,0.45456309598965583,0.38502406699925923,KuruYaprak
92.29175070886001,3.14447336961734,0.6622223799309611,0.13907648895338418,0.9812135644391548,0.019402174393389978,13368.5,716.7422027587891,0.32701418399382015,0.41796875,1.8490062040412986e-05,0.005677945006118787,0.03448330748309689,0.08300470090367235,0.07194309608598089,0.020693969726530898,0.42856140136653376,0.35561708936450015,KuruYaprak
91.77666711721207,3.1590632208764475,0.6445921784150718,0.1315606426771055,0.9828725753148987,0.01736276813581867,13530.0,653.7543947696686,0.39781249317728323,0.8247422680412371,5.9240004595497873e-05,0.007310156728695952,0.0442160812078063,0.08374508128433909,0.06440292059196664,0.022147922889825245,0.4179069369440622,0.3602116603471831,KuruYaprak
93.501401113752,3.281867641051366,0.631287967284075,0.12918008431078173,0.9839219327173634,0.016737516861948513,14227.0,639.9554047584534,0.4365397274985455,1.1320754716981132,0.00011291503906232774,0.008465456495085118,0.05317963244860144,0.08777088838451678,0.0630465040018952,0.022017654718103637,0.4089746811804422,0.3564322677307673,KuruYaprak
80.06094457359926,2.974778015066218,0.6362980553945846,0.12622851800907717,0.9874278195433894,0.015985743671244338,14972.5,611.0264749526978,0.5039461477035813,1.4962406015037595,9.825463388465405e-05,0.009805118336382097,0.06488282446757869,0.09413105085769949,0.05812838685269927,0.0196818632237751,0.40124523686366487,0.35202726476278995,KuruYaprak
86.73256028330172,3.4349207636484302,0.6061000060670096,0.2581074420007997,0.9899199999598302,0.06664350203210961,20786.0,689.6955190896988,0.5491183769152861,1.2228571428571429,1.047171798405267e-05,0.014014270258863424,0.04974987553607606,0.14254096536053618,0.09690426097181902,0.03519197351786909,0.0697725782206352,0.5918156044146913,KuruYaprak
97.04691732145943,3.641444126057135,0.625400918617071,0.34842913467159775,0.9873427749677106,0.12142310687307578,20544.5,740.4478251934052,0.4708868000229807,0.9951219512195122,0.0,0.0060075348498682835,0.03742041494326398,0.12538942823203905,0.11750841327724099,0.045822143554617556,0.04984244552305532,0.618009619618389,KuruYaprak
84.09417142745504,2.5216122254661357,0.7107657173047393,0.15849959149142853,0.9772802694110376,0.025189801931224613,8409.0,584.3330408334732,0.3094805275826098,0.22,0.0,0.003436698165589119,0.04479914646515835,0.05842913459320125,0.02515917011331944,0.020059383616697405,0.6800051820034048,0.16811128504110373,KuruYaprak
60.857217521504936,2.1178396680362974,0.6950641949430295,0.13686560021400926,0.9891870533957225,0.018813296589508696,11462.5,590.0559097528458,0.41371653990879564,0.6197183098591549,0.0,0.004893044864422682,0.055539718328652996,0.07895424038744078,0.03483641381351914,0.017751835841731473,0.3510824764470748,0.45694227031563234,KuruYaprak
73.41241870614529,2.4372623360005026,0.6950958859933033,0.14399144210993195,0.9872380482834883,0.020809238149806137,10838.5,630.9432127475739,0.34213578461171507,0.4126984126984127,0.0,0.004430853151800838,0.06496163162520723,0.07016721239266252,0.02814564424398278,0.011278818167874939,0.3496404909614765,0.4713753494554694,KuruYaprak
70.30822990256009,2.1032983558005967,0.7101476563401655,0.14842086294232365,0.9880196501641169,0.022097413618915852,9646.5,571.8061294555664,0.370750734217666,0.2421875,5.6786630667805544e-05,0.0336743523092317,0.08567768171708738,0.028546980315520148,0.004971672506885794,0.04116001503134054,0.7036771886478231,0.1022353228399175,KuruYaprak
90.28598764597635,2.686549839604919,0.7278435979461298,0.1673425543037708,0.978789341066109,0.028067105381619904,9336.5,615.8305156230927,0.30936526841773204,0.31983805668016196,0.0,0.002782844094664872,0.042664471794512104,0.05945237103621441,0.037122479607020545,0.008994906556358819,0.4750331504664934,0.3739497764432099,KuruYaprak
77.69943930819719,2.7527443170894506,0.695970632750536,0.1602065538100138,0.9851396909558479,0.02572686050568474,11525.5,608.6000660657883,0.39102601206382975,0.49327354260089684,0.0,0.009403303557736876,0.05595637302764131,0.06115626914819097,0.04735263001677821,0.012912765203718026,0.4734838149119614,0.3397348441324472,KuruYaprak
109.47204689903529,5.77074881055372,0.2517406696581987,0.02011729773843954,0.9665299399237209,0.0004069445677922774,9916.5,1286.8986166715622,0.0752453405609945,0.9685534591194969,0.01776637657013221,0.11286734786670896,0.22430784936010506,0.3166251986629667,0.2602379892382672,0.06032996084166644,0.007503674077041244,0.0003616033815864582,KuruYaprak
235.05117376732392,9.306625216263326,0.16389497497569713,0.01656454065825921,0.9426375539461529,0.00027607536051515514,52435.0,3111.6794822216034,0.06805208313927838,1.0,0.029110598096616126,0.25612380083830405,0.35843469956287216,0.18447008319901384,0.0971194398167942,0.053513710171486935,0.015576949774026473,0.005650718539360252,KuruYaprak
82.01921166138163,5.82200851235107,0.21215049092790988,0.02045709594477614,0.9724073439657303,0.0004205887276099099,27261.0,1652.253956079483,0.12548680039458862,1.4883720930232558,0.006866096047783643,0.17076655369152866,0.383383477902295,0.25272863051432026,0.12253705192996008,0.06041935939405604,0.0032988305185305006,0.0,KuruYaprak
173.28032307286423,7.902634203191164,0.1977118305535696,0.015927395407948235,0.9696379666524018,0.00025496001220854563,35117.0,3627.375001192093,0.033538401563466914,1.0,0.04308950386788769,0.1936790915093552,0.21659414253949796,0.2432924158429192,0.16186026778850915,0.09332490808809286,0.0446367450788228,0.003522925283389233,KuruYaprak
172.71249735679197,7.918530883554617,0.20549589440780358,0.016109304236412735,0.972524219197952,0.0002610616894758788,29950.5,2713.1769582033157,0.05112787005256262,0.8359375,0.0002738204656858568,0.04909745758647534,0.20164968453170828,0.21683361577019614,0.18960858513298276,0.15377376780766974,0.14940436868083817,0.03935870002291789,KuruYaprak
105.06476939458892,6.028030640258627,0.24925268228041952,0.0237484001764155,0.9753734000796939,0.0005681362811167222,53379.5,2279.2072734832764,0.1291268988974245,1.0,0.09195419012317464,0.3341601203464571,0.29972743614001446,0.13208713905463912,0.07802590762855742,0.056189383712383606,0.007855822993247809,0.0,KuruYaprak
109.91934699094585,6.18801490111984,0.24379935075614317,0.022957938693677835,0.9743147362120339,0.0005309332439910676,52291.0,2486.9301431179047,0.10624527836269924,1.0,0.08626954321754607,0.32575581868439885,0.2999019847192115,0.13986068426372653,0.08364377489264198,0.05662997376676406,0.00793822045418518,0.0,KuruYaprak
146.52550962971745,7.084452073721693,0.20705100300350346,0.018276475976658445,0.9553604955755912,0.0003359592888176997,31244.0,4653.472541332245,0.018131017701634184,1.0,0.0040246103324080755,0.10967598709388905,0.2873533361093961,0.301158231846967,0.21353640088815454,0.06476703718586926,0.018575391582385865,0.0009090049594042504,KuruYaprak
180.626273143158,7.668340406935053,0.21538676950801267,0.020715983692723594,0.9276100751331156,0.0004316299507349202,39288.0,3738.8897202014923,0.03531705435632848,1.0,0.01877758549706081,0.22720181334217784,0.40422482957965283,0.24239071116690952,0.07876018449359916,0.023315908394572243,0.004978135052841666,0.00035083247166000395,KuruYaprak
170.55472075044028,7.858934694588832,0.1951122290826691,0.015712347813024715,0.9655046499732229,0.00024844207768883467,26044.0,1764.704745054245,0.10509291630829462,1.5705521472392638,0.0014240938074426806,0.09558847464752573,0.24216105143192215,0.24872867359796608,0.20323779536197545,0.13013987821671316,0.07418775371465393,0.004532279220274949,KuruYaprak
135.0786638702717,7.39876773656764,0.193645465233438,0.018557250930368287,0.9432436051090015,0.00034639023494855824,11301.0,1459.425528883934,0.06667497495920753,0.49609375,0.0007481593711692019,0.055068610696147616,0.251810769473421,0.3562497008075141,0.2680051915781756,0.058973005706098675,0.009043495327804824,0.00010106703814322821,KuruYaprak
110.35228124398944,4.085490226114786,0.6216502742544368,0.22578624694246172,0.9830158238513118,0.05098688619113011,16765.0,770.5239465236664,0.35484700256850343,1.5562913907284768,2.4533739276923373e-05,0.007372328814326985,0.0441705441941728,0.10774344649952922,0.086980423272692,0.08114103429445348,0.25888097426431095,0.4136867149197118,KuruYaprak
175.19816934893151,7.104471852772955,0.35824452565294457,0.03617417064714051,0.9791057245481114,0.0013166080292200024,35984.5,1070.447825551033,0.39463384417453007,0.9758064516129032,0.01214838962927068,0.08944229425154859,0.1717023064105836,0.1881612141924212,0.11032852472026672,0.1782376158468482,0.19374886307032319,0.056230791877212,KuruYaprak
101.16517427191242,4.277964815215155,0.5464477871893307,0.07864916525435467,0.9855728424988419,0.006220364564760939,21849.5,1048.413335442543,0.2497964685728605,1.0909090909090908,2.297794117643554e-05,0.010874968884021398,0.09373025333165846,0.14265136718728227,0.09071541580485543,0.13867941463673694,0.31791088627785447,0.20541471593488875,KuruYaprak
70.34500660803488,2.6775592019896104,0.6821904998080291,0.13522350951171772,0.9842407486269382,0.018337945575824494,13396.5,762.742201924324,0.28936477340166933,2.226086956521739,1.7951516544090354e-07,0.004205621457560984,0.040843589633056544,0.08275367886399747,0.07561424105763584,0.2119975370516067,0.3862690645099804,0.19831608790947064,KuruYaprak
74.61297954813013,2.888567362913296,0.6525120472952888,0.10145369280297835,0.9826111514661646,0.010355073252497838,12381.0,675.8721449375153,0.3405936067424468,2.2432432432432434,2.1122951133546217e-05,0.008961815927529218,0.05957503973259904,0.08745482201656384,0.09690180759789138,0.2510269464227174,0.4495711981074635,0.04648724724257614,KuruYaprak
102.44725086204845,4.802513291162003,0.4434253359079017,0.04062120771566731,0.984535188684781,0.0016614540353748237,30981.5,964.7909713983536,0.41825952841490366,0.9087301587301587,0.0032143985523848013,0.0739868762445256,0.20658006855054264,0.17212285060482313,0.1308173086126987,0.22440119724613442,0.18664610619609992,0.00223119399126498,KuruYaprak
256.14826901011145,6.9863591076746445,0.3941985323830898,0.05516212550017562,0.9769926884863214,0.0030614433262938926,25897.0,806.7493419647217,0.5000139041196371,0.5992063492063492,0.000477929208792163,0.07649679744933179,0.20237193388066538,0.10985334807734456,0.013034656001052403,0.06955009909226526,0.35289737476968214,0.17531786151934028,KuruYaprak
213.08722734344536,5.942574745890766,0.4128642177668895,0.056709281848999454,0.9805300649236619,0.003236599312536375,23110.0,796.6904665231705,0.4575415814513308,0.9642857142857143,0.0011411180683193376,0.09498739803524109,0.19303475174219922,0.06490915335851,0.009694596832858986,0.09168461818307097,0.42198270909862085,0.12256565467965368,KuruYaprak
154.30291611098772,4.330624384251107,0.4344757490351375,0.05164631423781398,0.9822322309229397,0.002680798788750472,16260.0,686.8427073955536,0.4331275635035157,2.008,0.00577135273053654,0.13243952732439965,0.10064021091819814,0.013957004921087767,0.04938360476018816,0.2903919893148145,0.40296636843152345,0.004449941597726057,KuruYaprak
137.36869333609386,3.773148894055043,0.44173912665100457,0.05009865336678316,0.9824025066127912,0.0025217913932465545,13904.5,666.6000669002533,0.39321903643017775,3.011764705882353,0.00968651865041414,0.13768992704482663,0.06396280924469404,0.006986909754125367,0.06301042145364162,0.4144934560732036,0.30413896149233594,3.0996285232795885e-05,KuruYaprak
191.17557818807438,5.1598139988224165,0.3980062477551966,0.04228121798811594,0.9805355895820124,0.0017973057815545493,19418.5,767.0508580207825,0.41474124140506186,1.4739884393063585,0.0028191659964724148,0.12936772365176338,0.1380423751529756,0.02931249281934864,0.03266380160457641,0.21452499090423774,0.4069423301540971,0.04632711971500284,KuruYaprak
221.3487071829324,5.982746134299141,0.4127472149022554,0.053554102003262,0.9797057846619733,0.002884286631060685,25307.5,830.080296754837,0.46155015259273496,0.875,0.0006132836435346034,0.06506736605765194,0.20609872855360697,0.10846007103996924,0.013272693110427043,0.07993068321066242,0.3404044356995418,0.18615273868307985,KuruYaprak
187.4117974306813,8.08179701016447,0.17063631097247192,0.016131786566342128,0.9405064504405007,0.00026140508158789273,14152.5,1576.2022199630737,0.07158452670719236,1.464968152866242,3.763834635410925e-05,0.009356509937945286,0.10111197677297686,0.24255125756320225,0.2865835750799855,0.27654478783658776,0.08168149461920741,0.0021327598422148835,Oak
181.27398776913378,8.408734020569064,0.16323747712842393,0.0208952593500458,0.8948691108713561,0.00043829666492394535,6151.5,1450.7707612514496,0.03672766376269929,0.6586538461538461,0.00016629088158675616,0.009337720683962472,0.04357168160226197,0.16594645182266354,0.489495071709578,0.26221959731118055,0.026825130686999495,0.002438055300241379,Oak
1040.0500890883263,21.333151101739276,0.077501770065425,0.010398903054084238,0.8005877145551579,0.00010852923982444412,11370.0,2696.4734209775925,0.019650700704826045,0.7890625,0.005117378982835329,0.04592763863350835,0.10235105028323845,0.1304843079808058,0.202554141773588,0.3252472522207048,0.17414293476152953,0.014175295362263913,Oak
552.4453105926957,14.158191455810165,0.15478877301029798,0.018825682081482373,0.7257793067569307,0.00035668705973471377,8132.0,1258.45496571064,0.06452557397978649,1.1297709923664123,0.00011135924096183996,0.006057021197141497,0.06153708065247966,0.1993639777685378,0.44624179017241966,0.24282759124120404,0.042796295764334184,0.0010648839613954346,Oak
460.59415963812455,13.633505953238826,0.11231875438418505,0.012093162077479081,0.9147727975478909,0.00014709683232381793,13474.0,746.0731551647186,0.3041890521631551,1.0724637681159421,0.013953773648109843,0.08125514610128536,0.1396261776192723,0.17871374990398592,0.23463086894878424,0.27131634880473304,0.07607523600248806,0.004428698969815547,Oak
615.2205190162516,13.045771022564885,0.19419841283278055,0.021480381081226026,0.8563484369766161,0.0004640465116561949,63675.5,1410.1980457305908,0.40236668121498875,1.0,0.009377453373913389,0.24180208093942887,0.45146825453745454,0.15477947160285813,0.05893536735974463,0.03981137743177134,0.02684236414288184,0.01698363061042139,Oak
734.5933229857675,18.39321764765969,0.08764483302496678,0.011762578950130085,0.8017629684022034,0.0001387990306580117,8857.5,1226.6387305259705,0.07397546071693535,2.6705882352941175,0.002477787990192298,0.03802298751526062,0.10051365272656233,0.1720024557672008,0.3312309713919579,0.28194514255854636,0.06693911084931572,0.006867891199438051,Oak
323.8716216269063,9.709387510212444,0.2257450834902523,0.019921804336188058,0.9170393613100722,0.00040066543446391355,25633.0,2833.066346168518,0.04013246274531463,1.0158730158730158,0.0002698112936576766,0.0160422530828493,0.08719404631956672,0.17020149978910917,0.22151154162803213,0.3360241459860069,0.1603376799936278,0.00841902190562441,Oak
718.9698909674429,16.139674464148605,0.15517230117650815,0.015852618529162376,0.7361369423363432,0.0002527485343164814,9599.0,1782.8123924732208,0.03795111738279088,2.088235294117647,0.0006581025965063489,0.014415905522343201,0.058569395775799116,0.19930868709758195,0.3743382472612242,0.2712338316670186,0.07585868087457784,0.005617149203422803,Oak
220.08857090723,9.438939034866346,0.15381858640532375,0.015328297755685996,0.9243843973986688,0.00023656510596009863,30871.0,2148.576891541481,0.08403472066831932,0.82421875,0.0,0.005694639916504794,0.08738977768828583,0.2887403899543695,0.28262598374267545,0.25823340322417704,0.07511668485742211,0.0021991206150395377,Oak
205.33973739068995,7.903261065456025,0.22183015767819322,0.02832942097451514,0.9538856878062951,0.0008042084811359597,51188.0,1959.7097984552383,0.16749216532793257,1.0,0.0014300178079022301,0.05513551001446858,0.2913142185580726,0.3486233580340881,0.19563658471171125,0.03981921626066223,0.016527003867928228,0.05151409074364076,Oak
329.93630825584717,11.58660021085616,0.12217775856429233,0.013502075960603658,0.9226363181564237,0.00018308520629459226,19090.0,3432.404440164566,0.02036192728569726,1.2427184466019416,0.00782817765776992,0.057960959041731416,0.11165735581324875,0.21042067583837382,0.269494030521954,0.28268318924206254,0.05856101840141183,0.001394593481921892,Oak
583.7846078731905,13.905848742070198,0.14910177964945787,0.013657733384579146,0.8508569962968686,0.00018781338667539464,9473.5,1400.805251121521,0.060668715679589987,1.070921985815603,0.0007887896369473264,0.031631290211348806,0.1155554677924095,0.1883521584900619,0.3169803394985973,0.24140182195888404,0.09832314883946393,0.006966983570761431,Oak
357.34792578275403,11.453365727724693,0.13138012906119306,0.01705077311193813,0.8867672079382027,0.0002917100536777257,8017.5,1686.001209974289,0.03544321169490449,2.4380952380952383,0.00211211559818918,0.022143614525854696,0.05811163210392483,0.11336239085460646,0.2545425115843237,0.42655184876619967,0.12230948653856943,0.0008664000268062766,Oak
110.45938570802163,6.698450220468054,0.1720716553490593,0.024868927940630517,0.9342847243068411,0.000620368871602156,4349.5,606.943211555481,0.14837238661209018,1.9615384615384615,0.00022588991651313582,0.004994889801616155,0.04224584242870393,0.08126160864724123,0.3909925872198387,0.42996592802094297,0.049313773360831585,0.0009994806027864656,Oak
212.42692152658373,9.4582622068435,0.14197424445938894,0.013682934292669676,0.940755812593033,0.00018821512967511406,32040.0,4607.712217926979,0.01896407560310528,1.0,5.205939797786183e-06,0.011183316099860388,0.12049740062022057,0.2643990310964103,0.28532188265887837,0.20913833917324087,0.1021803313609041,0.0072744930491616955,Oak
138.75812813881862,6.835859570237437,0.2350386391908605,0.020573856422140498,0.9640824955918008,0.00042663161047831776,16606.5,1103.56052172184,0.1713545584390451,1.6470588235294117,0.0,0.0034372965494739232,0.07457957548242299,0.22514295390973615,0.19964354271951767,0.27790228151765206,0.2140002082372653,0.0052941415824061385,Oak
552.7378839268696,14.685876135380552,0.12869378370496665,0.013704692493357108,0.8005891789269257,0.00018901531071276187,7477.5,2160.9860523939133,0.020121592897574765,0.6666666666666666,0.00024910721124349257,0.010211540670940305,0.06543752632879112,0.1840458290246886,0.3534213795376042,0.2952679204001315,0.08593498678755268,0.005431710037522352,Oak
793.8684604178892,18.08643066969475,0.10621561246520482,0.011842346184065456,0.7588476029120577,0.00014091173384897095,29649.0,5208.628079652786,0.013733246594576365,1.0,0.0006537942325357673,0.014022707471639143,0.096254416072923,0.22659804400241165,0.3278548296755108,0.2357187906897444,0.09304402669256631,0.005853391161143031,Oak
177.70975515727434,7.366163149389685,0.21106458901905056,0.018983416418257775,0.9357752208352983,0.00036316753846363725,11264.5,815.3940026760101,0.21290543968424194,1.4205607476635513,0.0002641864851405283,0.007586430568309505,0.05699768066397555,0.18273937748899816,0.3152471205762653,0.32478918935688794,0.11112706801453624,0.0012489468443608396,Oak
209.10592153559412,8.406784244641601,0.18168063031142706,0.01793176417771971,0.9189744681387132,0.00032378645114662446,25061.5,2597.6134682893753,0.0466732314329045,1.1130434782608696,3.805721507347135e-05,0.006502338484211896,0.07810309914969704,0.23822206983342945,0.30900220683929575,0.31581289253934647,0.051440070657090595,0.000879265280329541,Oak
183.24649985883076,8.393260930291175,0.16199154462310228,0.01622073107808626,0.9442724795633384,0.00026459658552427167,12250.5,2528.2652707099915,0.02408343336371617,1.5421686746987953,0.00045201918658019277,0.030236756567815385,0.08678140079260654,0.16733278760697512,0.35053776759673844,0.2831193512556954,0.08052152745851679,0.0010183895335462406,Oak
314.1275763828902,10.918204987264438,0.14915148356682573,0.015239228932000273,0.8900519702282407,0.0002336600873334178,23018.0,3152.0612951517105,0.029113079164865323,1.0,2.950032552078834e-05,0.012638525869312826,0.11228739420555786,0.26016636268725624,0.3340324252254401,0.22427242503412456,0.05556963752289312,0.001003729128368567,Oak
595.6793094903525,15.010269277441116,0.12356422743251758,0.014066373407453297,0.8059032062662581,0.00019881246210663004,13981.5,2425.3779677152634,0.02986790593220042,0.9790575916230366,0.000759528664980459,0.017190192727455395,0.07107376397813912,0.15909130619997178,0.3144010656015424,0.34097194297588906,0.09270964977773838,0.00380255007275768,Oak
1407.1937148572897,24.922846140907374,0.08382175529240533,0.009285952811736374,0.6964613831714064,8.663869066282564e-05,15508.5,2866.5983122587204,0.023716247651937097,1.641025641025641,0.004300824333633144,0.04189626656320201,0.10839897604533093,0.20933544682489505,0.27068876378635165,0.23436482747360066,0.11620022642828468,0.014814668543175927,Oak
223.79701225191047,7.795471468305621,0.24860372812117337,0.02552379556716541,0.9141619060495303,0.0006564491461794062,10567.0,1128.8326016664505,0.10420834148383515,2.010989010989011,0.00010094736136626765,0.029592775830990393,0.11536943024262426,0.22356758865621532,0.4246948242181021,0.18385650036353668,0.019659782858425876,0.003158150467213319,Oak
592.7409600724725,13.83450609441081,0.15790415972691885,0.014309048763608879,0.8624391699171519,0.0002065403265697127,14028.0,1544.4204759597778,0.07390511880597829,1.0892857142857142,0.011412736481293864,0.05453533097801116,0.11095700731447534,0.23088714001190266,0.2960047703158781,0.2277451459095789,0.06242215025649175,0.006035718730842508,Oak
451.08952007643313,13.89547866205291,0.11152962106505782,0.014129933852909365,0.8530879845098966,0.0002004875293282742,17774.0,3242.0856795310974,0.021249370265885133,1.855072463768116,0.0002464743221503594,0.01736420276115611,0.07103510837918087,0.1953862208943098,0.3650955499381685,0.27636449477209657,0.05127240349256882,0.023235545438843222,Oak
362.62433520162375,11.623689926951279,0.12308481763174985,0.012497750481298425,0.9383324261495057,0.00015702615731655342,24525.5,2244.795147061348,0.0611609615345144,0.76953125,0.009221694048699165,0.09314491421554416,0.19974095961596364,0.1862275965070688,0.17395994896955685,0.25264856675053354,0.07636138317620085,0.008694936714907078,Oak
152.5445091731578,7.035537803969663,0.19098886953461935,0.01782003557527149,0.9590747099197023,0.0003184844295366814,13623.5,1390.638731598854,0.08852581180038753,0.700507614213198,0.0005066516352627073,0.024680642520642494,0.11015349743396183,0.15202002431808911,0.3029606239463821,0.3039908614808473,0.09966358857981113,0.006024110083477329,Oak
190.75922169358387,8.287651083717751,0.16468466256727501,0.016386087011128658,0.9403512783491474,0.0002700555535078747,13634.0,1320.3717058897018,0.09827447560054471,0.8256410256410256,0.00024862850413565014,0.012713443531690167,0.10327280081938904,0.19780315324341757,0.28952965829842475,0.3199888341562212,0.07273936552148823,0.003704115923707585,Oak
130.43930687716565,7.05843008097843,0.18853506949270496,0.01725543017370032,0.9618145229158963,0.0003003218669484462,31271.5,2406.525155186653,0.06785436118937291,0.8203125,0.0007610844630809468,0.021691355985720584,0.08183007333780411,0.21482843137222132,0.33751430137433186,0.2448084214150676,0.08579299029168892,0.012773341758558945,Oak
507.4475972132325,13.913685556636686,0.11868542632622286,0.01125049347341963,0.9059945150786635,0.00012717970387561838,33126.5,2410.701780796051,0.07163057531398209,1.2307692307692308,0.006727510340063264,0.06458351284840023,0.18277809292634492,0.24470627728593178,0.20379967782980543,0.18419710047076676,0.09981318455101186,0.013394643746149907,Oak
499.273512336013,14.711017952830387,0.09663821045029755,0.010992396288036558,0.8842858772376516,0.00012133694549640706,23881.5,2201.245938539505,0.061934741612187545,1.4797687861271676,0.0024867637484643434,0.04272179697067624,0.12317301432272874,0.22417147767275844,0.2882901659194437,0.22164982814381,0.08264782475477582,0.014859128465816789,Oak
166.12463568700005,7.600603914359921,0.20978011898931198,0.028835420840376824,0.8862686277270148,0.0008389545026041534,44168.5,3313.3089866638184,0.050559018877215596,1.0,2.632889093133242e-06,0.002641206629132001,0.035219977883677894,0.1860629212619711,0.5471203972303234,0.18952810250047658,0.038461423387655756,0.0009633382161443639,Oak
336.4229853902392,11.551151330017301,0.13448772336678128,0.013553212331242227,0.9256900322067165,0.00018434184086407163,35553.5,1941.055031657219,0.11858138750894542,1.4382022471910112,0.0006104712392760293,0.025648468615922883,0.12428600834846233,0.24598789589040287,0.21064129997670067,0.23073383406061612,0.16041451248443653,0.0016775093826567552,Oak
157.91159094459164,7.186884341359085,0.1951193923422395,0.019087722714324032,0.9562812220772441,0.00036706182240402565,5183.0,651.1025927066803,0.15363572827008157,0.6546762589928058,0.012958242378963074,0.04791265749456538,0.05014068005124091,0.15661752738180765,0.3842945772052961,0.283737003101589,0.06401205623841331,0.0003272561465987656,Oak
690.2352116073436,14.572511503988533,0.18085077592651552,0.01642573123543967,0.8407472800290705,0.00027199543431354685,46709.5,2989.0835930109024,0.06569600503610143,1.0940170940170941,0.007177674536600569,0.04203192018988685,0.12931686102155515,0.3190013212311309,0.26027096019031976,0.1324340820310479,0.10078813141452142,0.008979049383411543,Oak
793.9183074418775,17.743503189879174,0.13539395376256003,0.013872832174041312,0.7959152859031358,0.00019360428000473402,28400.5,3963.9304736852646,0.022713485974030598,1.0199203187250996,0.00036339853324086717,0.011106064740332324,0.1391552495019323,0.30489962708669777,0.2371681961355143,0.19216739430117735,0.10648540422011933,0.008654665479459834,Oak
263.76274092296774,10.23882349937502,0.14579913476446027,0.018373686699312313,0.9063829978270009,0.00033897372151705325,10902.0,889.0092279911041,0.1733418805003634,0.5872093023255814,0.0003137326708022175,0.01886315439258765,0.08620156680823246,0.17067153033062202,0.35177408854113007,0.3237781001067362,0.0431601730046829,0.005237654143680735,Oak
670.5193976175137,14.974627727316054,0.1581696022001808,0.018013956379862348,0.8062537905539282,0.00032776082299572145,1664.0,517.043717622757,0.0782183508066367,1.607843137254902,0.004923442765770675,0.04421560250069847,0.07704013001673293,0.15291999368083287,0.4087010402299219,0.24255030014898635,0.06649768305749654,0.003151807598034407,Oak
276.98161585989004,10.471591800629461,0.13879293768380135,0.013207541873469692,0.932237086338819,0.00017630573855169062,21908.0,2154.2337448596954,0.059323524758630265,1.4819277108433735,0.0005296295764391432,0.03239620433129249,0.13056592754269294,0.20886493757627442,0.27144081265277215,0.25743043188915987,0.0922001857382171,0.0065718706916260035,Oak
605.7948098537818,16.83727501141347,0.08162936507710278,0.010156091572246295,0.8546481074796449,0.00010367685112639387,11535.5,2205.8977395296097,0.029790345237391023,2.009009009009009,0.0013319426891830173,0.02464653463920873,0.0929805381623888,0.18434944900783767,0.2724813423900561,0.27210819019949284,0.13614675484430813,0.015955248065998944,Oak
216.04447306925454,8.716950692041513,0.1776586079279941,0.01657549593416297,0.9443160940174598,0.0002762502879174265,22153.5,2327.8733538389206,0.05137283291824529,1.5515151515151515,0.0013056137982516845,0.037394445082663534,0.13410052131183586,0.19906281115931637,0.2684950884646639,0.2922646316823052,0.06725691253053456,0.00011997596890300326,Oak
788.9057907415552,18.390140721117028,0.08999005113706175,0.010668871661042339,0.8091080860257988,0.00011431812028271132,10063.0,2174.400266289711,0.026745969902976983,2.076923076923077,0.0010874430338525076,0.02622489181215362,0.098259241440567,0.19490182913956172,0.2586263619213272,0.27954370835205505,0.13225797765375033,0.009098546645206707,Oak
200.13068804666784,8.303699178200674,0.18097751431564546,0.017627620252684006,0.9411611594641786,0.00031365275840205414,11392.5,1163.7859196662903,0.10570187820900824,1.2205882352941178,0.0006318335439634969,0.02470146627983364,0.11873623717046838,0.19367244944823397,0.27319270115231,0.3366151697490267,0.05216680788518384,0.0002833347694542246,Oak
493.26914726312066,13.215270959487036,0.14274112823270324,0.0165354936201561,0.8535137593761768,0.00027512219165429333,61895.0,2044.052945613861,0.18615776219575483,1.0,0.0015786563648872978,0.031578153722378294,0.19153382544394798,0.4206876866951301,0.20819319182719453,0.08843383789049004,0.04084329044111414,0.017151357613331676,Oak
223.60993635260536,9.131261804353885,0.15510028639144635,0.017219382210483736,0.9393466204768455,0.00029900000973225786,9223.0,683.6711338758469,0.2479634018371161,0.8115942028985508,0.0013942942899794904,0.02888542624076475,0.11347907571214307,0.19525834625812732,0.24066963943743921,0.35465692258294523,0.06448669433583905,0.001169601141235961,Oak
500.8769233738499,13.150471228013267,0.17318610968420273,0.020187026852129218,0.814955836665413,0.00041005577703063806,3279.0,1259.7097994089127,0.025966311642694813,0.5797101449275363,0.0022718840954315833,0.03172846775424081,0.09311649098101603,0.22215869379944664,0.4456511852781191,0.17365214029921403,0.02231804342827477,0.00910309436273121,Oak
149.36086398561537,6.919600108732428,0.24496831573129246,0.021709862118415316,0.9462678098999415,0.000477919972215266,40873.5,2992.986052632332,0.057337969057914086,1.0364372469635628,0.0,0.03250098134952149,0.180633365406434,0.3889783672252031,0.26258706485483824,0.10379961799156949,0.025537049536572546,0.005963553634335263,Oak
323.70552141905375,10.503921553609029,0.14730690172149663,0.01351068776844784,0.9412411067226093,0.00018364741552718818,19021.0,3210.806463241577,0.02318541920276988,1.0921658986175116,0.010711789598635621,0.08583344104230164,0.1199287564144923,0.15768420649485745,0.26757208132235527,0.2602959726367045,0.08565883262471609,0.01231491986441136,Oak
146.45996819132327,7.856163554882768,0.1575703273065043,0.017341258431719648,0.9378805206105639,0.00030237121419952927,19094.5,1281.8447941541672,0.14603174227274046,1.0434782608695652,6.163354013470993e-06,0.007642020431207706,0.07390549603619241,0.25263971066903856,0.3752141017534104,0.23991824879329196,0.05050108666505772,0.0001731722962619908,Oak
487.0694159548128,12.72027190563717,0.17322815489476345,0.014205196954105624,0.8973768417150817,0.00020349388033475872,22991.0,2095.464194417,0.06579717335526376,1.147982062780269,0.001948517444084037,0.030237534466865633,0.15295278511772006,0.23282249301052094,0.21745964499047704,0.23526503618989836,0.11368300494008383,0.015630983838824188,Oak
377.2160780709713,11.901807267637565,0.16056082087183998,0.01843873007786763,0.8790324574741356,0.00034191570733219567,46222.0,3176.3556702136993,0.05757054551212128,1.0,0.001899090935199309,0.0711033241420484,0.35023809694722924,0.32463235294068116,0.153012204637481,0.07532492244933356,0.017733585133245,0.006056422813256691,Oak
527.365668342712,14.265099871443438,0.11849905998691626,0.013317536231134608,0.8385007491162966,0.00017822216590733078,22862.5,3591.891809463501,0.02226830129057194,1.1179039301310043,0.0008560479855991845,0.02217526903336078,0.08179656384025513,0.19109407312700627,0.30516770306708957,0.31061509076239363,0.08691639619701808,0.0013788559857515733,Oak
204.33776993825057,8.75442876537873,0.1542082612694818,0.015391751093923895,0.947795763767863,0.0002383783264400269,11751.5,1172.0113146305084,0.10750769737863655,1.1610738255033557,0.00022194058287343597,0.015655158547770234,0.09790697284758347,0.1985256419459287,0.24299256567824445,0.2856518315329588,0.15658671061174015,0.002459178251374925,Oak
72.67346418745284,4.893637708453522,0.2780877065160279,0.022321091734537165,0.9736571757394517,0.0005041342803518235,16544.0,1427.851934313774,0.10197272781014691,0.6491228070175439,1.5139112285516128e-05,0.006821097579646457,0.05848071528407132,0.23097905177660838,0.32724651261822,0.2754545922368652,0.09781936944684823,0.0031835219439289675,Oak
368.76573559450026,13.03968353517848,0.10264721155124384,0.011071713694729212,0.9265726469999538,0.00012315130712843849,57215.0,1669.0579981803894,0.2580934064930335,1.0,0.0018503824869763438,0.08180757410373549,0.23049657485029168,0.2553800096694939,0.19700658461596776,0.1643564860023533,0.05006259095427408,0.01903979731538149,Oak
496.51879724745766,13.537315185264985,0.12353215669302448,0.013226286852128356,0.9062623851393776,0.00017572060145322406,23796.0,3040.355670809746,0.032349311413161594,1.0,0.00033599255131688946,0.024046355602751302,0.12765688428672312,0.19417772480056153,0.1859207452509418,0.2242754169535488,0.22843957040789276,0.015147310144737922,Oak
993.0140883316215,17.597956164698928,0.20303666917751223,0.0272192349203679,0.7940170850265258,0.0007465576990680261,56395.5,3367.7110098600388,0.06248628164721645,1.0,0.0058286180683121865,0.10266209022655906,0.4828759286910524,0.19382701200567848,0.08542785644518215,0.06130945542270057,0.04530304553455098,0.0227659936044383,Oak
278.67754464929726,10.854013195044967,0.12218153172094279,0.01312096215064825,0.9303093113687171,0.00017332257701765317,6155.5,661.7127641439438,0.17665835233633578,0.8495575221238938,0.0009113386565549826,0.03683423808971096,0.10419915891145257,0.1743539249193112,0.28315286075324453,0.29714211856572303,0.09811281690395565,0.005293543198521337,Oak
865.0715215151529,17.3029086018596,0.14667140413455373,0.015781288196011482,0.9230364157758579,0.00025054845096609537,17625.5,1313.0752427577972,0.12846123231025858,0.7745098039215687,0.09998139026103005,0.22336910472162608,0.06827380610436885,0.07906883090138059,0.15322881960377968,0.2120396632770968,0.14343130074273455,0.020607084386457534,Oak
234.5266765186525,9.182642763600525,0.14861276725553307,0.014943334790930156,0.9442793961796417,0.00022497398897416434,11743.0,2125.287567615509,0.03267033001520629,1.8028169014084507,0.005828259037981304,0.04075885847496845,0.056951964135176586,0.14182110954711818,0.3325727275768517,0.26881199257005545,0.13751944747604625,0.015735641180276233,Oak
213.67961865629184,9.562635945309541,0.1385794730240858,0.013832781304768014,0.9392028595920742,0.00019231870612115444,28530.0,2792.8165642023087,0.04596495216062838,1.3544973544973544,5.4572610294034397e-05,0.006826782226552085,0.0989339791090709,0.26292491239619814,0.2783077464379945,0.2349431654982628,0.1059599633308738,0.01204887838922794,Oak
205.5818067870642,7.936325872260747,0.20419440566476293,0.018919267013626388,0.9325228365759369,0.00036019791250021735,5808.5,1207.040751695633,0.050099107835437806,0.8923076923076924,0.0009786568435953206,0.027269789751796635,0.11720311781921455,0.2178554759302742,0.3635729621432872,0.2381676767383006,0.027217131969933948,0.007735188802071531,Oak
790.7528720324619,15.584595528162875,0.16426260741297294,0.01650699532430531,0.7674203587116047,0.00027494392305587,26068.0,4557.251322865486,0.01577290243669587,1.0756302521008403,0.0039474188112684876,0.03230237773815538,0.12727475633788796,0.3149730009186371,0.3361123477706269,0.1223419787835142,0.04836838666123133,0.014679732977152846,Oak
307.56851823818374,11.099416600586139,0.14533878988809434,0.021869892672668746,0.8009921936049961,0.0004808612062344393,4291.0,1328.8813716173172,0.030534861297595733,0.8581081081081081,0.00010495653339444781,0.007209987266379933,0.0281422932942279,0.13577725279544242,0.5088962928913806,0.2743504542926265,0.04481045592058111,0.0007083070044413217,Oak
379.58855022707814,12.782071408832717,0.11900079675677169,0.01236750976426702,0.9158257795097262,0.00015386307300229915,12350.0,1592.278340101242,0.061212320968436935,1.3333333333333333,0.002366189395676538,0.048751292509116806,0.14146088244846677,0.1775060915476765,0.26688232421834285,0.27077672621741766,0.08561353496463647,0.006642958697140601,Oak
152.95095935158082,6.620249618536342,0.2482704042477985,0.028300312766018576,0.8949321012949694,0.000809486278979694,52405.5,2972.975947380066,0.07450817771589857,1.0,7.312251072292768e-05,0.0020464728860262902,0.03049507889088486,0.33910187365910277,0.46466752594521626,0.12882869944833275,0.03262771905632275,0.0021595076018655784,Oak
492.8864131283747,13.939026396097248,0.10327344927382169,0.010876158635895368,0.8975782613342421,0.00011934756332873856,28408.5,2627.0104367733,0.05172905810621342,1.3195876288659794,0.0008743585324741567,0.04240758559276619,0.1226962220433177,0.24184295055876093,0.2566228529982298,0.19575105554887412,0.11733625823358321,0.022468716490468176,Oak
442.898781853756,12.264025479983522,0.16859691666594695,0.01733632866359666,0.8352436841968127,0.0003025065386837224,35189.0,5265.123467803001,0.01595143172879916,1.0,6.761737898273998e-05,0.009777592677681163,0.09627194872074774,0.2571307612396506,0.38872064328601835,0.17987383674145335,0.06348464068234796,0.004672959271592135,Oak
383.34586993284023,12.472350373053189,0.12527198253772723,0.013916681347603658,0.9099810692810524,0.00019449803898934393,21517.0,3494.8796157836914,0.022137427022539628,1.1377777777777778,8.927887561260894e-05,0.023073084214119206,0.10317604214521636,0.17701535692374948,0.21732093960597973,0.3109357646862597,0.16132046568602826,0.007069067861508823,Oak
302.32809152430633,11.194550938941694,0.1304096061169157,0.014343106395178197,0.8875879654378483,0.00020661612218521042,24898.0,2726.272411465645,0.042095515199612916,1.2610837438423645,1.6395718443602443e-05,0.007765826056973447,0.07566600126367132,0.24076238893958365,0.35891568052947687,0.24330534093483078,0.06712873870240978,0.006439627853084538,Oak
445.730204533759,12.19094009815991,0.167596551627086,0.01984406288047198,0.8670734546698399,0.00039722241028264767,60444.0,2180.1605900526047,0.1598034280167398,1.0,0.0006989123774499141,0.026849305395945555,0.2421877393531844,0.3988982555906903,0.17443111644045073,0.09809444651869222,0.051854810527647566,0.006985413794413362,Oak
307.2291865808932,11.334199046039851,0.1274180911499536,0.013093224337676642,0.9195213803645772,0.00017290860947241556,17325.5,2478.902791619301,0.03543044832308897,1.620253164556962,0.0019723331226991964,0.04013169232530642,0.13634972665803338,0.25380853391122427,0.3163573620361288,0.18564776252269458,0.05140781776569972,0.014324771656687703,Oak
356.7239737871851,9.960057024342522,0.21883268009532497,0.027840484988388807,0.9042589085852892,0.0007798535463971845,59445.0,1776.5138416290283,0.23669441153866647,1.0,0.0016215006510391927,0.024166690601985185,0.2599488501451304,0.501418768190105,0.10226500268060375,0.034057138480340185,0.03384447284768121,0.04267757640158929,Oak
249.5210648398408,8.7189917489665,0.1745352088236538,0.019811199280448423,0.9450014526062991,0.00039564747096639544,12083.0,1435.7097980976105,0.07366332379937593,1.0980392156862746,0.005683689491412897,0.059214752795559156,0.10157710056663423,0.13335469563781738,0.23170279708527766,0.39008735207890827,0.07565259746465167,0.0027270148782127515,Oak
317.141776239909,12.398831849528769,0.10053849284384697,0.011706673459474898,0.9170464954109974,0.00013796965561860955,21969.5,2823.544487953186,0.03462906513227523,1.7902097902097902,0.003731521905631563,0.043212352079437764,0.15190752814774622,0.25867686552120467,0.2763464834171641,0.2084694656668081,0.05730710497080714,0.00034867828967471336,Oak
411.0479388186037,12.63110929390099,0.13236813486836924,0.01680695402768195,0.8841223730892053,0.00028389240597491807,7225.0,1030.2295705080032,0.08554205772187963,1.0149253731343284,0.0002832749310657443,0.023806343826556817,0.09329989564170814,0.159056958964984,0.2327347100946204,0.39984082988603203,0.08884696212455796,0.0021310245289489545,Oak
84.78204024594048,5.784185814951073,0.24921349566530468,0.022507518965845526,0.9809509800942382,0.0005127598576148297,37729.5,2004.3687380552292,0.11801458212480759,0.9878542510121457,0.00014594582950345388,0.055363195082636145,0.33708795285640974,0.23375142415328917,0.16765741086448072,0.14055935728762256,0.06452726476322872,0.0009074491613037628,Oak
98.80732352040249,6.068526062692257,0.20943558097741188,0.019710453557532523,0.9643531016009047,0.0003904829099530694,21706.0,1402.739236831665,0.13862315295821823,2.115702479338843,0.0009943943397656401,0.017458388384624105,0.1451221540860225,0.2582092883536195,0.36233364927947176,0.18071193321050852,0.034362254423201226,0.0008079379212610225,Oak
412.9113058529251,13.425244392180726,0.11339665094801316,0.013834651242681482,0.8232021656505039,0.00019221920238734694,11532.0,2385.017575979233,0.025476005269542322,0.8430493273542601,7.778990502439113e-05,0.004560702454803092,0.030141972560462596,0.16049732881409337,0.35144354128316474,0.33309619379927724,0.11453235102617321,0.005650120155475447,Oak
474.09088805989245,11.912853259563509,0.18273522544664894,0.0180404858878935,0.8468165097170051,0.00032769633033579516,9067.5,1702.7707617282867,0.03929932216040933,0.7368421052631579,0.00043502508425178737,0.017623063629721894,0.09050310920252738,0.17989789177362261,0.30061513863311984,0.3419624478204034,0.06730873257495854,0.0016545912798687993,Oak
253.67647982448437,10.111041982050203,0.14853300370978118,0.015856312274093565,0.9392445558278114,0.0002527684644988304,46107.5,1861.751428246498,0.1671621882126734,1.0711297071129706,8.179907705257128e-05,0.028432090609637996,0.2245294907510361,0.35966282264804195,0.19368310068138336,0.11065949084695122,0.056571272307664906,0.02637993307670607,Oak
253.88918919406922,9.074807015330741,0.20804538301906508,0.019419509839888764,0.8918082484089003,0.0003809482178124878,26252.0,2855.9536485671997,0.04044547593554116,1.1531531531531531,8.676566329643628e-06,0.0010368197571981733,0.02637454762174286,0.20618322035814138,0.3916244207638021,0.25608299105736043,0.10765045764383081,0.011038866230068944,Oak
940.9124086739635,17.730910031598338,0.1260772252391944,0.015573724693463261,0.7445986443787699,0.00024374364135734835,2750.5,1296.035699725151,0.020577261861430957,0.8333333333333334,0.003973987055753741,0.035700001436066865,0.07537871716057742,0.13427279603227066,0.2801752427040763,0.3782640644142512,0.08920395795023149,0.003031233245246601,Oak
327.1720537323464,10.758737129349171,0.16020124077325612,0.01437806291689126,0.9321296638862915,0.00020777028914659919,14578.0,1585.3910380601883,0.07288447203621624,1.4210526315789473,0.001187552657780051,0.039727124980791104,0.10136916216666518,0.19359418083610172,0.28967129576395756,0.20999648150243685,0.13547943713597585,0.028974764954765843,Oak
202.59235529904916,9.462527858876323,0.14424848044944588,0.01575072501142989,0.9162279030312198,0.00024956511348580554,17517.0,1518.8813722133636,0.09541614851371365,0.5427350427350427,1.0352041207092065e-05,0.012692081227002697,0.09445986280239878,0.2973822500186946,0.3606538660380526,0.1973713594321436,0.03641889983526915,0.0010113286037055648,Oak
657.3874843509664,15.506601847846351,0.12245093212192962,0.013746427393152759,0.8900120869602571,0.00019012680789416746,11787.0,2554.164766550064,0.022704677008512614,0.4140625,0.017179840686248293,0.07408650716134528,0.11315110150488249,0.16405597761540533,0.20766553691757525,0.2756756352439115,0.14595612170627228,0.002229279162833608,Oak
173.09892554847613,7.388151417123353,0.21089525601793074,0.020277514210908447,0.9358265608090076,0.00041342876763074616,14015.5,2623.8632494211197,0.025582092581691317,1.1326530612244898,0.00017658308440536794,0.009066293753815825,0.0650296080345209,0.15951962938471378,0.3886158662677895,0.29234900381006235,0.0708435058592669,0.014399509803899603,Oak
159.32919550173335,7.875226505430606,0.17424125617818242,0.019342807393929677,0.9201524381098631,0.00037642825806281514,18251.0,3199.693763613701,0.022401634104772517,1.0118577075098814,1.7951516544090364e-07,0.0077255548215262055,0.05639636469813701,0.20399253695587755,0.40053740856633135,0.3038766898356268,0.026559089211816073,0.0009121763939937066,Oak
236.9096785641378,10.20195755538716,0.13362355905086923,0.016594050143300836,0.8811152644849066,0.0002770334822922131,10965.0,2607.9881389141083,0.0202584995561057,1.6305732484076434,4.3861538756060556e-05,0.005062806372541297,0.052359427657702,0.23070008520951327,0.4074951171868783,0.26211374320195896,0.04163423426004675,0.0005907245710775303,Oak
284.54495802396855,10.733350679426195,0.14863536166934763,0.014860896190494391,0.9083311201065785,0.00022185009343588877,19626.5,1481.9524402618408,0.11230114653921906,0.7601809954751131,7.964489506728048e-05,0.018030443378495777,0.17520889581391777,0.24865662817823578,0.3166201123999458,0.20447142357888518,0.03476706112127046,0.002165790632656009,Oak
458.34993310867276,13.319987054257936,0.1216277954150134,0.012065194183318282,0.894138744446158,0.0001464284259015438,20992.0,2588.90993142128,0.03935770794141022,1.532934131736527,0.004645134420948795,0.03883200252751429,0.15398122750053098,0.2435190836584826,0.23898441090266848,0.2344167671948016,0.08191899318308574,0.003702380610441655,Oak
257.5712388865109,8.29570366565785,0.23469108962007584,0.02108459783230087,0.9089537269617144,0.0004492441904521689,24865.0,3219.7526375055313,0.030140698473286143,1.0,0.003212304208787992,0.043157719630755244,0.22896602854974266,0.3628831452008863,0.28705193014662084,0.048754224590152245,0.009964707318459064,0.016009940353069938,Oak
622.8438056727153,16.359965442978577,0.09450982287887005,0.0106282652143187,0.846804472102867,0.00011341258163059211,19228.0,4368.457385182381,0.012661576127753768,1.0,0.0012377570657150234,0.04414337756580275,0.14425096698813777,0.245881144205354,0.26096921434549636,0.23076112036576302,0.06807639926077232,0.0046800202014328105,Oak
214.75531015715814,9.083335285707403,0.15404487023904256,0.01556212495833838,0.93137873828194,0.00024391382909021972,23449.5,2981.1424671411514,0.03315721065971259,1.3689839572192513,0.00039535223268934795,0.014342244466123954,0.04723361146209094,0.18313042135771698,0.3208303414134198,0.2857622333597049,0.14129734413275002,0.0070084515739782804,Oak
369.689272680583,12.247668279627803,0.13783788530943816,0.013770405583664746,0.8857255892343809,0.0001907318353372859,20951.5,3553.2400065660477,0.02085335318443821,1.5515151515151515,0.00019226074218720674,0.014440259746454688,0.09031090829872866,0.2030340456492001,0.3287454642496516,0.26067822026231674,0.09963989257797291,0.0029589484719623987,Oak
636.7414639802759,16.173318465254336,0.10298634583526918,0.01276057160752883,0.9093027370874098,0.0001636626257957591,54927.0,2657.8906004428864,0.09770606903207803,1.0,0.03188021790742685,0.2317760392727775,0.35490686753162753,0.16592473048764508,0.07029335171557902,0.05144725126370826,0.052188888250533125,0.04158265356917675,Oak
204.1120730458267,7.965608585039347,0.23833515342692696,0.02425145516926397,0.9321828193757599,0.0005929829369380764,11692.5,1581.0895218849182,0.0587765812301807,2.064516129032258,0.0030382343366987968,0.03619157379743252,0.08732952043108613,0.1719722373810183,0.4462945077926708,0.20379381366773425,0.04768760531549095,0.0036925072763424062,Oak
220.87606095011895,9.476320105247892,0.14045352634929734,0.01517571376244932,0.9443423125598103,0.00023181147572233482,6040.0,611.2691133022308,0.20313366240638253,1.2934782608695652,0.0009409586588527314,0.033963132372037644,0.11549150055512401,0.1565462000227391,0.2504547717520689,0.35084246467088004,0.08964801863114379,0.0021129533356279043,Oak
659.8086799848662,16.39654126417689,0.11428957260880303,0.012408452107982575,0.8377538466740957,0.00015508385499654544,8351.5,1012.9331068992615,0.10228520445816894,0.8431372549019608,0.0005581724877442465,0.020502127853063084,0.09891387341054148,0.1681799795110792,0.23923692890205536,0.3178003049359427,0.14559397977918956,0.009214633118858489,Oak
579.6243050449513,14.722007100634267,0.14493997680916776,0.014257565002252025,0.7975697994260232,0.00020468968853479518,7170.5,1092.8742314577103,0.07544299693265193,0.7152777777777778,8.74837239581999e-05,0.0076170079848229405,0.06468793083629837,0.17998735016440065,0.3219975490191166,0.3179826923440307,0.10109623927680651,0.006543746649040264,Oak
683.0311597404151,13.687516520090165,0.21548299035180118,0.025547779207767206,0.8996225955130052,0.0006584421629052374,58673.0,2167.7341849803925,0.1569047552413206,1.0,0.0483120188992829,0.3885623109100995,0.3443495806520481,0.08548081341898721,0.03050842285151594,0.02271788354010014,0.028729128370054216,0.05133984135638612,Oak
236.95827835148052,9.72028310926073,0.1532771633813611,0.01503738845699152,0.9249794396155347,0.00022761450877564597,18882.0,1921.557558298111,0.06426153002874124,1.377245508982036,0.00046745749080811063,0.020402616613020345,0.10175757314629084,0.23663186465956548,0.30134995404365794,0.2773188572299689,0.06018694709319858,0.0018847297219640366,Oak
527.4627388354472,13.895273737865372,0.16206544283540184,0.015265697474787735,0.9010874337632742,0.00023452184305440123,37836.5,2717.20134305954,0.06439871161483028,1.1743119266055047,0.0008731019263160698,0.03696241191783576,0.16080974504034898,0.29549476773086036,0.186152379652749,0.1487278358606799,0.15021811092578174,0.020761646943902146,Oak
339.5124411734721,11.541052044285731,0.13272808371412712,0.013951710239987175,0.8974536810028848,0.00019651077810667883,7554.5,1964.0499802827835,0.02460993796143855,1.9844961240310077,0.00010980344286135213,0.010908179189627968,0.07050260656009466,0.144002697514333,0.2932888853779227,0.32316278195799336,0.14988295611190358,0.00814208984373758,Oak
764.8207870172171,14.44516556132476,0.21511329513539237,0.02757507884024385,0.9153596794311253,0.0007650846407344326,55131.0,1738.2295701503754,0.22929335380327898,1.0,0.056260531556286714,0.4156159644027054,0.2663800407854391,0.08188009823057359,0.03662815467978479,0.030565807866068554,0.03674412147665965,0.07592528100095645,Oak
280.10174914699104,9.588489913735488,0.16827185606685896,0.017437671085788448,0.9291774585235423,0.0003054953335145849,56115.0,2369.866213798523,0.12555706997914443,1.0,0.0003913430606611677,0.04413775275728561,0.24842535280675945,0.3555255964685139,0.22473479626191192,0.06571427887551244,0.025675575405904455,0.03539530436192515,Oak
129.42471857278738,6.977867031310108,0.17671359381722973,0.01930416895340882,0.9434967173704029,0.00037560349641880105,7960.5,1190.9574928283691,0.07052736990574583,0.5215311004784688,6.283030790431599e-06,0.003844077914363009,0.0683779847387131,0.18746008779459758,0.36212900199086906,0.32566396675808135,0.0500549316405486,0.0024636661305109477,Oak
224.2663645893437,9.19550809784686,0.15414384243589674,0.017648101682432877,0.9355276106814587,0.000313264987302214,5113.0,936.0630503892899,0.07332894753534494,1.032520325203252,0.0016970765356898127,0.03204088398049646,0.09038433000139397,0.13457103056045644,0.27335097368984035,0.3980056463497297,0.06956428079033496,0.00038577809053249977,Oak
428.3173878887105,12.694354830474337,0.15370761904754385,0.01645163411086159,0.9205288608159381,0.00027202741080235713,41009.0,2193.523069381714,0.10710373859167711,1.1327433628318584,0.0007345162185956935,0.08936258951809282,0.33107760560228283,0.21312004538110865,0.1246418074063662,0.16206102558186056,0.07131263882495242,0.007689771465214983,Oak
517.3121733227865,14.021165206891498,0.1428808616044529,0.014946377284789208,0.8133029255905525,0.0002244380480498193,19914.5,1860.084468960762,0.07232924599952738,1.818840579710145,0.00019920199525092164,0.014692717907453079,0.09248531565932584,0.271822641409665,0.36732542748488684,0.1917107077202956,0.05594243068312541,0.005821557138471512,Oak
437.5247989805679,11.458340136606102,0.19909048572321836,0.016222142454130565,0.8789443027706377,0.00026544204908861843,14597.5,1270.3300757408142,0.11367244128570686,1.3251533742331287,0.0021960090188385614,0.023177980909125186,0.11813922956860042,0.20764249913801042,0.27995784983872735,0.2884237850409202,0.07968247357524604,0.0007801729090061631,Oak
180.36076878484903,7.998181258410274,0.1739916145594893,0.017515544622259217,0.9408270157341994,0.00030863804501940164,19303.0,2617.7972326278687,0.035396691125442324,1.0491803278688525,0.001045077454808455,0.029695338828845633,0.12828464882026996,0.2363823984179911,0.3669808780440173,0.19577211866161906,0.03937724992334677,0.002462289847575901,Oak
386.69248555243763,11.508084690983994,0.15933950627357063,0.014975501830457103,0.8909835389605476,0.0002255420700117517,15521.5,1036.364565372467,0.18160108639692582,0.6363636363636364,0.0004907346239269474,0.027970676796066393,0.09903001972258173,0.2172666063492396,0.2936941109447112,0.27087665632617974,0.08982184914967907,0.0008493460860893906,Oak
727.9537358077847,17.05508829236418,0.14050701346360622,0.013857636678719963,0.8114581070019998,0.00019367217719206144,32350.0,3081.4094936847687,0.042813951866819744,1.2075471698113207,0.00017921597349850114,0.03122103821992786,0.15567722694522815,0.30004374186152133,0.28334889131390584,0.1605146221083641,0.0447549258960714,0.024260337679956855,Oak
244.4952714701161,9.1726728601981,0.16146580611317998,0.01470095317988854,0.9406383989712178,0.00021718986723935757,31609.0,2219.7484633922577,0.08061448659286857,0.69921875,0.0014038684321363393,0.04285906623385005,0.11614014868625051,0.2621407303151638,0.2848975686461646,0.1876415776268583,0.0985956528606032,0.006321387197447465,Oak
124.84980872742078,5.9306707456268155,0.25785968657960817,0.02084206726940944,0.9571614777602757,0.00043711136537497155,40070.0,2329.8561078310013,0.09276219291686469,1.0,0.0004270067401954271,0.05995615042883009,0.2578449324061629,0.3401408475982861,0.23248883415635482,0.09322025074664075,0.012520943435949023,0.00340103448605486,Oak
480.7236554900671,14.511209886221044,0.10437855614046798,0.011687069636569285,0.9042231935586692,0.00013790906844258222,24943.5,4819.719356894493,0.013493473321438684,1.0,0.005666934742638413,0.056226782705183824,0.1257016051047408,0.18679336847015005,0.25099660835975796,0.24187502393498636,0.1307070863011179,0.0020325903798988606,Oak
565.922163005218,13.734601550485039,0.14696739963008246,0.014828125994725104,0.8516800440375601,0.00022176213594793335,8905.0,1575.9595785140991,0.04505610440675457,1.4615384615384615,0.00797172995173416,0.03887616325821274,0.08420535816852961,0.19095333323730057,0.34084107642028266,0.2528213201780761,0.0813620174631111,0.0029690013212270885,Oak
217.22116595781293,9.3756329897155,0.1461209485617656,0.016098186136119144,0.9145220558633873,0.00026098633983727545,33692.0,3195.3506183624268,0.04146671363827825,1.0281124497991967,2.997903262863074e-05,0.0017176609413270365,0.039965640797273584,0.22486147413032487,0.3711617862471359,0.25005217907437327,0.10076102462453983,0.011450255150871011,Oak
344.26027834850265,10.320926386486404,0.16493862832894474,0.01981416946421638,0.946415650441459,0.0003940288756297098,51270.0,2770.660150527954,0.08392795952530031,1.0,0.0067239798751429275,0.08280370375676704,0.3562398274734148,0.25608233283508713,0.09103226007185865,0.08557787128510227,0.07493256213606826,0.04660746256503305,Oak
771.6068700290251,17.33768651179909,0.13085933575214603,0.014103886368325975,0.807497713053365,0.00020058804532691962,28319.0,3499.340513110161,0.02906132209919036,1.5421686746987953,0.001769241632197056,0.059534229951655485,0.19641161151930814,0.29093957040779755,0.3048156738276599,0.08883188285066096,0.03202514648432614,0.025672643324868915,Oak
719.4331844123528,14.795401017638415,0.17528390504871816,0.02152997384680895,0.876767024728192,0.0004661884850600652,54999.0,2824.9688054323196,0.08660387892032807,1.0,0.011929799996152141,0.09171028885172894,0.30035304649157607,0.3238668404368526,0.114622766831167,0.06181299546176228,0.042185764686669715,0.0535184972425654,Oak
841.7285018983227,17.111287125143726,0.11187022428012093,0.010086957641925484,0.8851694558191857,0.00010233538272431669,22965.0,3574.9384911060333,0.022580791772541974,0.9921875,0.035697308708585236,0.10626047171782192,0.1306204403145985,0.2022402295876204,0.19355546539875487,0.18234588024635165,0.1334574979892265,0.015822706035515076,Oak
238.89469846333802,8.051387597318428,0.23174649203655268,0.020615539040989984,0.9466407201903586,0.0004269696866484357,24389.0,2278.552506685257,0.0590317660248009,1.0,0.00021350337009771347,0.01659910912604698,0.09747739305668339,0.2627406699980672,0.17884916417711674,0.24819156422296693,0.18983716777697737,0.006091428270517667,Oak
650.0268590956771,15.931421823937946,0.14284285354128926,0.017402773145578962,0.7613013156806663,0.0003050051401778775,35683.0,3595.7324286699295,0.0346813895985601,1.0,0.000663906920188938,0.009456978592203708,0.05213353774118884,0.19574680702329206,0.3933730779903618,0.23900050742916953,0.10251297296246609,0.00711221133960312,Oak
527.642745128077,14.99611693819658,0.09888858926808772,0.011261220361703184,0.8786190887592231,0.0001274651865008658,13339.5,1886.3342502117157,0.047109892668045626,0.8260869565217391,0.0046859442018923605,0.04329887838918026,0.14123529172389604,0.1961621452777338,0.26532945819889053,0.2644146489158036,0.08278012743170574,0.002093505859371806,Oak
346.988661947937,10.492886825379616,0.16446669394135208,0.015649857952485025,0.9070346381891238,0.00024644038648258997,10142.0,1945.3220586776733,0.03367832218860929,2.265486725663717,0.0007437911688101399,0.02163564644604542,0.09433677523729479,0.20942239200335697,0.2595908370668527,0.30066558239460855,0.10706577674998977,0.006539198931515759,Oak
634.3622311731265,16.016528889128708,0.1385347997203619,0.014286293885152304,0.8624863938273692,0.0002058867892338644,17427.0,2242.9688071012497,0.043529735414712625,0.994413407821229,0.004837395163136003,0.06862086875755463,0.15900992599163855,0.22891660204085787,0.3124420166010858,0.15158290489024048,0.05474243164054147,0.019847854913419474,Oak
448.24708549600865,12.206454819060097,0.19636270844025216,0.023126991435970697,0.831593275928817,0.0005378252516048361,49189.5,2264.961667537689,0.1204926509522248,0.9609375,0.002825030158543484,0.03825833189715364,0.13447193818913308,0.4376117781090137,0.2913122438912527,0.059534110274878455,0.020727658739245335,0.015258908739253675,Oak
229.07900911008232,9.743759296304209,0.14129299090823913,0.013456561490983392,0.9411506516488495,0.0001820253796051498,23705.5,2418.2408851385117,0.05094010842050471,1.4310344827586208,0.0029543409160494136,0.0344720578660626,0.11497515510092751,0.23232020957761737,0.290094951554398,0.23379241344939813,0.08869802437563054,0.0026928471583904994,Oak
621.9845043823982,14.616518151072246,0.13368733868304086,0.014752492015107949,0.9262416170570141,0.00021921409058992325,41677.5,3890.161799430847,0.03460797548715774,1.0,0.013976392558955393,0.21676833208836413,0.27718290441134175,0.13677045036743835,0.1125049665860722,0.11321171779241304,0.07982255524267845,0.04976268095121084,Oak
166.064695114262,8.21503714016238,0.16250063546783014,0.01871939717000879,0.918619286964896,0.0003541741219828744,10615.5,2068.878407239914,0.031165951093849502,2.169491525423729,1.7951516544090364e-07,0.0026966169768647594,0.03795812270214798,0.1491141524967088,0.3875545127713144,0.33961618460809073,0.07879297593048636,0.004267254997695696,Oak
307.72758242022655,11.50709745049969,0.1198111872009947,0.013212843397720676,0.9174601605836578,0.00017592577084486204,15390.5,2167.647958636284,0.041160921688774596,1.6516129032258065,0.0017181396484348787,0.0337002024930552,0.10330559225627621,0.19910392013220235,0.2839709712005471,0.295901249903807,0.08090144138697822,0.0013984829771731115,Oak
208.88150673720625,8.216552392709795,0.20742350911294752,0.021425882602608082,0.9463328877979094,0.0004628077070185832,48237.0,2537.0032958984375,0.09417770242096103,1.0,5.660711550236465e-05,0.02846272786453991,0.1680877087160426,0.39876738903508396,0.19035058115013842,0.12205427581170102,0.07716752594580746,0.015053184359658406,Oak
745.024266162784,14.52624031322227,0.16884521094265043,0.01761628676703647,0.902092446800989,0.00031191590625103777,54841.5,1566.2468160390854,0.28093043175229676,1.0,0.03130529067090813,0.14586373123445884,0.31594387877173,0.26243130552962407,0.06074320475251148,0.05068227730537612,0.074865124272251,0.05816518746161469,Oak
413.88168188019023,13.495817338883798,0.11542477258237077,0.012816452092334722,0.8744696747980598,0.00016512656574159198,24863.5,3360.8136014938354,0.02766198078667085,1.3763440860215055,0.00013343960631107096,0.028557691387058146,0.16857024548074773,0.32114245844773304,0.293724987553167,0.1357819201897437,0.041280649222516654,0.010808608111196747,Oak
459.7121037131135,13.178600583308896,0.13075184203585635,0.012226142006337913,0.9070790723777957,0.00015047207469658634,14306.5,1767.6580641269684,0.05753693794978141,1.3357664233576643,0.00376293705958372,0.04919493432130974,0.1216449213961073,0.16472317564696068,0.23755457260993165,0.27883659811538336,0.13918522853456083,0.00509763231463683,Oak
332.7340276276462,10.849119899798737,0.23703869908030428,0.06652968588754633,0.960753320021827,0.004429199702064944,56113.5,1611.56052339077,0.27150884436389416,1.0,0.03632692823217497,0.31460702933469153,0.37630489573701775,0.1038959577970228,0.03973346784997,0.018149102902852203,0.016115435431960742,0.09486718271278417,Oak
470.00934053310897,14.753673301734764,0.09011302488615504,0.011245589121927892,0.8632752497552819,0.0001269570517463664,15932.5,2719.5343812704086,0.027071023995001196,1.1475409836065573,0.00011931774662971993,0.01627263087849846,0.13046689500975803,0.25212378408356145,0.3105271881697161,0.21880211923603246,0.05814280790432301,0.013545256969954822,Oak
221.31914576124743,8.849261461937637,0.15976614974651868,0.01892229869153192,0.9352831930554011,0.00036047655959675894,8454.0,1617.2732881307602,0.0406167603437217,0.6860986547085202,2.4653416053883954e-05,0.008599793677223397,0.049260158164753265,0.10556993671475925,0.17270256491242028,0.3541444666240001,0.29839286056173814,0.011305565927525643,Oak
262.87897209007053,10.599477604767358,0.12775888159644097,0.012873614591137334,0.9334425867796192,0.00016723817625434456,39618.0,1731.508789896965,0.16605540285087358,1.2132701421800949,0.00010058833103538577,0.01948613185505605,0.12510094736117552,0.26033612419537483,0.26769863951399103,0.2068750718057504,0.11141495050151498,0.008987546434575744,Oak
261.320654570974,10.039444249207229,0.15813775768003568,0.016065229378431196,0.9280365883651556,0.00025972332622247753,41696.0,2520.719026684761,0.08246228770994041,0.9453125,0.00010531556372532959,0.016496067421083907,0.14510456159980928,0.3378269569541415,0.24838675704618965,0.1606824089496629,0.08221046597337331,0.009187466490488436,Oak
220.49826091527405,9.22508518358316,0.15735891318875755,0.015754284946361545,0.9437876199148418,0.00024983178369778814,18212.0,2875.350617647171,0.02768126201911613,1.0851063829787233,0.0041113759957045115,0.034508020737539266,0.07976217830870184,0.1556278602747319,0.2667686312802302,0.34208188524381006,0.11610622031998208,0.0010338278377741582,Oak
603.4595179137949,13.555776774557557,0.19043943125048945,0.019647163308094337,0.7865233448127334,0.00038860757025555763,10889.5,4022.616763830185,0.008456691444354023,1.1277533039647578,0.002756575042122021,0.025185439165862314,0.07711504767911029,0.18221674900401125,0.39402196547504226,0.26915522556637844,0.04830058976708314,0.0012484082988645172,Oak
372.16684162941664,10.109118127643072,0.18822363489718008,0.019084596302828348,0.9178686404596399,0.000367988427983365,5561.5,1267.5849089622498,0.04349583628388365,0.7080745341614907,0.0126018449371744,0.04740169749533209,0.06906947715599145,0.12860442516830872,0.2517570346005657,0.3659214393759735,0.12338747510704202,0.0012566061580863185,Oak
364.65929118309043,11.098804230944662,0.17071313867696053,0.01575374301776323,0.9027506416186443,0.0002497623541991747,22260.5,3606.2349551916122,0.021509818290950927,1.299492385786802,0.0006938261144290885,0.015872192382788284,0.08230746400109991,0.20892298081310037,0.26730256922063994,0.3003417370361532,0.10165279612806175,0.02290643430220157,Oak
264.8447663158538,9.070924344002512,0.1940793499766898,0.01823276091196456,0.901785777795762,0.000334701348713884,26468.0,2346.719026327133,0.06039608686886177,1.0,1.0950425091895061e-05,0.0038683723000860113,0.07718051087610775,0.2494199266616906,0.34882662903975586,0.24878055348077838,0.06075469372309969,0.011158363491864103,Oak
660.8299671851602,13.316661425293692,0.17998953646965482,0.018583121714966663,0.928658861607001,0.00034702575798607407,34123.0,5454.554924249649,0.014412470512542195,1.0,0.06886255600862655,0.2848990646058766,0.12922482958007245,0.1499591902188276,0.14671600940158372,0.11404203527096568,0.07182659074360975,0.03446972416891186,Oak
477.9763887086726,14.221176590734121,0.13233250280361764,0.015113857146129549,0.7633913637571994,0.00022972936648238892,12362.0,2368.105889439583,0.027701058695417325,1.2516556291390728,1.7412971047767554e-05,0.0021212110332381857,0.029367903167081422,0.13695505179590012,0.3344684077239076,0.3969129973760793,0.09720997529856483,0.0029470406326548176,Oak
390.3413694252441,12.709599192618093,0.11882962932122094,0.013180133773598912,0.8757571551189072,0.00017491678633745777,28606.0,4472.030978918076,0.017974523724941467,1.0,0.004482314165893897,0.04883793849563628,0.16475094065921553,0.305348534677077,0.32116681267184455,0.13070529114946342,0.01970358455879345,0.005004583620549963,Oak
802.0583491475805,18.683025834414536,0.10615171161653666,0.01070026330582812,0.8394455117719848,0.00011519691983759112,26659.5,3663.6907987594604,0.024958830771742276,1.1428571428571428,2.6448567708292995e-05,0.03862430348109916,0.18262670180348972,0.19735687854213146,0.24826516544079769,0.21312435374507918,0.09621797449433846,0.023758173923830176,Oak
251.03853360186275,10.615405027513374,0.12309678331213292,0.014351790988322425,0.9056591340282538,0.00020726716159728337,21912.0,2689.9048801660538,0.038055553030685196,1.2367149758454106,0.0003019445082715982,0.007605758367788642,0.06281074075128287,0.21655811982963286,0.35642281326538755,0.2652696198104101,0.0897603951247098,0.0012706083409907089,Oak
655.548980935859,14.524639967200464,0.13933278737674937,0.0170088867162944,0.7375502669747744,0.00029116095669290344,40101.5,4656.145764708519,0.02324434678606524,1.0,0.0011514102711379494,0.01425434187344639,0.0421384325213818,0.2557706346694934,0.41019311044667806,0.2031275730503946,0.06473634009257889,0.008628157073363063,Oak
397.01663033754954,10.858961622333698,0.17190217113267886,0.020160929218522507,0.9399031809241603,0.0004090406593854251,61767.0,1721.5777686834335,0.26188648140038795,1.0,0.015027513691000357,0.16745814903084136,0.43909804400208735,0.1677656585092415,0.05881245930980609,0.05181705250451652,0.052097515031323705,0.04792360791965726,Oak
225.1087213151248,9.235226595540116,0.14423438453862342,0.014342431573478753,0.947985256101503,0.0002065645555766602,15199.5,1541.550418138504,0.08037550210265106,1.835820895522388,0.0059262144799235575,0.04854754279634138,0.10863204656846172,0.17570495605441944,0.28840852625185776,0.277059098785576,0.0933600332221308,0.0023615818397635545,Oak
340.15217266196737,10.123669381968483,0.167445378271818,0.01910438170515805,0.8530001800586374,0.0003670733640062965,15716.0,2050.978911757469,0.04694934030081652,0.72265625,0.000337907379748259,0.00950724283852716,0.07655071183735258,0.20463879155146475,0.3715584549243719,0.30388746074555323,0.033095356062296286,0.0004240746591598922,Oak
476.28679803142995,12.962882830522213,0.15575737352441377,0.015787548352214065,0.874410849559519,0.00025062698244066576,34033.5,2429.3880738019943,0.07246406416593756,1.1179039301310043,4.152784160532882e-05,0.010954135071980838,0.1047849767346747,0.30884824266573585,0.2454336727362983,0.20124864765211323,0.11712359260092417,0.011565204695141669,Oak
353.50858706688985,11.135919342920918,0.17477285215416416,0.01591346267764754,0.9005342693500695,0.000255184546107183,13772.5,1103.0752427577972,0.1422369300323031,0.9411764705882353,0.0003708783318009048,0.03166025199137327,0.17471570781606308,0.23555082433328028,0.33223661534875776,0.16637710870455605,0.052966787300776995,0.006121826171865659,Oak
382.74536072365015,11.642407262230833,0.12868444876968688,0.012398078294701697,0.9198827625432957,0.00015467327373227548,16586.5,1628.0945749282837,0.07863309299114875,1.0740740740740742,0.0028624889897321524,0.050330427581111926,0.16229684867086144,0.21727342792552634,0.24339324352750852,0.21449812346780997,0.10525883693305015,0.004086602902873667,Oak
392.14167154759974,12.084377508049299,0.1422716616132688,0.01375817456153212,0.9376897336859078,0.00019041495631104538,15027.5,1137.8204092979431,0.14586435019044042,1.1011904761904763,0.014312026079941401,0.10631935269208656,0.1282331279677884,0.12303598441310884,0.22997987036576428,0.28215942382769443,0.1099999521291213,0.005960262522968847,Oak
544.9668459847271,14.046441392733305,0.15789307364550098,0.01408699836559057,0.8933167820388062,0.00020041062639198322,24301.5,2956.823707461357,0.034929476900262345,1.292929292929293,0.00032121246936225504,0.038125909543446745,0.19524919098468982,0.17292510387917856,0.21905822753872825,0.24405206418467654,0.11978287042337722,0.010485420975014639,Oak
349.9718274972368,10.945607233395574,0.15730576941650332,0.018470519380897457,0.9003141571044432,0.00034308076121013806,13797.0,2359.2286925315857,0.03114974139756247,1.3428571428571427,0.0029540417241070123,0.0337642894071176,0.1046015122355941,0.16529618805504806,0.278509760837504,0.3695369346463416,0.04463812136175782,0.0006991517310038352,Oak
507.2066455209776,13.666599504998175,0.1605755068929803,0.016437953214496565,0.8463052738813563,0.00027212578808439425,38457.5,2872.3140408992767,0.058576992531212034,0.9453125,2.890194163598532e-05,0.0031972847732794365,0.08861526788436237,0.30737328622808496,0.28263292499573905,0.20289988798222713,0.10356738520587748,0.01168506098726771,Oak
235.95012543253193,8.681236693819793,0.17179095658497973,0.015055558650771048,0.9557644595892278,0.00022786105519834003,17892.5,1913.5403139591217,0.06140527170898445,1.3209876543209877,0.005474793677228167,0.05291658289284206,0.17000355440001635,0.1591296027685991,0.21228242761916147,0.2763230866072683,0.1192732268686905,0.0045967251646682325,Oak
444.15258871287654,13.439692410971514,0.1183812099988058,0.013698204453532684,0.866258168268425,0.00018870474621780965,8251.5,1931.7657083272934,0.02778650107874416,1.1156462585034013,0.00427629059435622,0.026837158203084056,0.05821664847570774,0.16931936226613262,0.3448823218246883,0.28831613578004406,0.1071463790592727,0.0010057037951884168,Oak
774.2618505352589,16.58999908388572,0.1218191741331216,0.01290305708986773,0.8280615761205562,0.00016717785785057206,6124.5,1673.7413252592087,0.02747285694403122,1.8777777777777778,0.007459154316011904,0.04812358781395844,0.09436148849173716,0.1560066372738122,0.29288748946799675,0.2820963541662362,0.11653029497914198,0.0025349934895794665,Oak
341.84788604443804,11.866387732482465,0.1239889836527937,0.012199505442236705,0.9280767618638215,0.0001495166660288867,21251.0,2935.443982720375,0.030991431801621595,1.3989071038251366,0.010721902286288788,0.05914067287062055,0.1356436935123543,0.21066912482734398,0.26349457385453057,0.23938562729742877,0.07493908452041256,0.006005320829494514,Oak
205.29077407127693,8.591754102989285,0.1612882633618743,0.01868073098706384,0.9012107479227389,0.0003509504227465821,15596.0,2930.7232006788254,0.022817785110903082,1.324022346368715,0.00015791350719951405,0.01247420965454592,0.046417056812888755,0.1704343907970746,0.4134310254857357,0.31405962775687357,0.042570944393317364,0.0004548315908387669,Oak
458.9527300948002,12.567977926158026,0.16461503008278533,0.018930289756817435,0.8015060060040795,0.0003605173723729867,3465.5,938.3300759792328,0.04946118231920391,1.098901098901099,0.0006330901501215831,0.015303488338671503,0.04551194134873571,0.11655626483974252,0.3738869461353058,0.37752541934685024,0.06999511718739314,0.000587732651653515,Oak
299.14755169286434,10.810233924451955,0.13955295082280852,0.014310987717332186,0.9046955130525234,0.00020564728038818982,16912.5,2291.2703244686127,0.0404822845240529,1.5515151515151515,0.0004309560738351269,0.01814425599338531,0.10002220004197364,0.2375423655786817,0.3084434958060552,0.2660931755510645,0.06815448835773909,0.0011690625957396382,Oak
623.4517628436515,15.562152237120543,0.1653178004652272,0.016806149389522324,0.8093357598690899,0.000283928416197099,18305.5,4792.003628253937,0.01001744999937163,1.003921568627451,0.002980071423095944,0.04745387657008691,0.14076609891982197,0.2698762781475662,0.36718283260513823,0.13380569757179325,0.029236557904367143,0.008698586856604375,Oak
624.6255489475345,15.969297085255542,0.10997212405713724,0.012680831140866862,0.81102299264432,0.00016157825424233322,4381.0,1163.4255273342133,0.04067297501172124,1.6701030927835052,0.0004758348651953526,0.019751335592800744,0.06372728534763562,0.1369901170915496,0.2926525041164346,0.35096561207437255,0.1277131323718945,0.007724178538591157,Oak
419.81681324490864,13.312235017781363,0.12083389707739786,0.014585846568828772,0.8408525775661662,0.0002137831876255703,8655.5,1025.9625446796417,0.10333299391993536,1.2290076335877862,9.795544194225255e-05,0.006360042796405741,0.07136086856606762,0.21741392846167812,0.34550942813596186,0.2795629763131456,0.07780049641915208,0.001894303864120885,Oak
407.2605975916928,12.79460812848411,0.12182364463561389,0.014642595122975523,0.8657884638927955,0.00021594794382337834,19667.0,1725.5575585365295,0.08300210011105305,1.3902439024390243,0.00040995279947854125,0.019246598785969408,0.06693605909150327,0.19465978285815888,0.34826875574395394,0.29488740808778513,0.05895804610897864,0.01663339652264619,Oak
369.22079245363574,11.974330636053349,0.12783786541219144,0.012376072510406691,0.9168964688458612,0.00015435680334614798,28795.5,2051.0794166326523,0.08601407738290547,1.4222222222222223,0.00012530158547775007,0.022856648762985963,0.13704181745919655,0.24101747998967515,0.23397324505938563,0.22243335200257117,0.13156786151940703,0.010984293619774908,Oak
766.210856311284,16.152444913013767,0.15045185106594372,0.016431318238269342,0.7830524222905829,0.0002721565564202501,6260.0,1304.7392370700836,0.04621008328235707,1.7894736842105263,0.0027222876455228074,0.04450342514928872,0.09904144885478149,0.16368593702104317,0.36400559369199975,0.2652708764165681,0.05940102969889828,0.001369401520371685,Oak
825.5082151396418,15.53556456651268,0.1772207684168466,0.016920739534882358,0.7594426185618858,0.0002879726001562332,14378.5,2392.240885615349,0.031572838532451485,1.855072463768116,0.004007795745245111,0.03725412406167724,0.0900164435890171,0.23658016429191847,0.35093377805170106,0.21113209443901598,0.06727929208782624,0.002796307732072939,Oak
499.99001452266316,13.317173157559093,0.15694463154124333,0.01326822287212337,0.905171497921057,0.0001772010700001868,17492.5,1963.7413244247437,0.05700240609713435,0.8106796116504854,0.00863982555911672,0.057037353515537965,0.08579490512012035,0.1647338268801102,0.2417975930602929,0.28390359317511826,0.14177000756335592,0.01632289512482191,Oak
737.4154648152299,17.064138822808392,0.11237681604672142,0.011094094497167618,0.8417830237226107,0.00012378583240565787,10920.0,2614.1302740573883,0.020080663061291318,1.2834224598930482,0.004419184666047179,0.035837809244736986,0.10080865598177022,0.21052886364474618,0.2548644421143476,0.2526294184662199,0.11998159371152031,0.020930032169085712,Oak
380.44815027574725,11.196041411355965,0.22363355443865007,0.02207670905066899,0.8413432938390142,0.0004915855664859561,14167.5,1815.8489686250687,0.05399376822711444,1.2922077922077921,0.0002088359757962501,0.0167603735830014,0.09769562365947108,0.21823736452555553,0.4150158452046365,0.22334594726528403,0.027924242206605658,0.0008117675781237616,Oak
121.23817510092462,6.541467824875043,0.21406635295622073,0.019831191654328634,0.9564422553819891,0.0003969523881265615,20559.0,1645.9595801830292,0.09536159765538327,1.3251533742331287,0.000564036649815316,0.00786820953966324,0.04213855219815875,0.16721574371910763,0.30381954417462836,0.3333537980616849,0.1423094506355058,0.0027306650199100495,Oak
410.734796127113,12.103812911500523,0.19858537642778876,0.02082654234722187,0.907162328183672,0.0004370789056383188,35870.5,2683.544489145279,0.06259356611414568,1.0,0.00016916312423381058,0.011450314989259492,0.13674537808266515,0.3544805788520939,0.17599547143049124,0.17167633654998318,0.13318643008941072,0.016296326880336654,Oak
158.74702151816973,8.145480223952333,0.16490328472635896,0.016511339421837745,0.938874853873729,0.00027375900408649844,15052.0,2694.5911707878113,0.0260506346924411,0.58203125,0.0011663100298695442,0.018225516524941556,0.06990087172553673,0.22428965849000707,0.3707366943353719,0.26590731751644464,0.04910272336466156,0.0006709080116411334,TazeYaprak
184.10206337406586,8.437266390931338,0.16644819839613578,0.01558562164443541,0.9518296078673391,0.00024388312062522386,17407.5,1398.0113155841827,0.11192443084858261,0.5390625,0.005358467850022462,0.043438122319173926,0.1126094444123588,0.17769691616854016,0.30126869351210167,0.30668029785109446,0.052088060565943756,0.0008599973192388841,TazeYaprak
190.2131421808969,8.793621864186877,0.15554347419430803,0.018046194794307458,0.9343216843218611,0.0003269787115468556,5598.5,766.2813053131104,0.11981331539537318,1.9012345679012346,0.002425967945768358,0.021113077799446954,0.05438531613809105,0.10959945379502277,0.3036852668308787,0.4142670874495823,0.09171064788205976,0.002813182157624385,TazeYaprak
166.78581854034806,7.853631971477347,0.1681391163997547,0.015812655176654058,0.9613994253933824,0.0002509950010360124,8484.5,718.7422015666962,0.20639055878639845,0.8865248226950354,0.005355834960929329,0.03349453795184841,0.1353768741381207,0.18188775754414652,0.23073114133313452,0.32242192287021887,0.09005862965289561,0.0006733015471803456,TazeYaprak
155.19780458538054,8.010546739835636,0.1548827222869355,0.016012693575932855,0.9527378357807696,0.000257546680602737,9599.5,1020.2468149662018,0.1158905387093417,0.9084507042253521,0.01004973766848957,0.0240166159236766,0.08541433296938564,0.24490009382621952,0.32575635722989515,0.2590138753251255,0.049065922755746186,0.0017830642999360055,TazeYaprak
157.18238291763168,8.270897371203388,0.1539339121486834,0.01634644013528838,0.9428092539569269,0.00026847525029017634,14606.0,1980.9789106845856,0.04677151699530519,0.646551724137931,0.0011052748736196372,0.012341368432119651,0.07476417691088473,0.23420386220858874,0.31441034055175676,0.3075146843400638,0.05417677935423713,0.001483513327203619,TazeYaprak
184.79970624279747,8.918859393021961,0.14749013925531665,0.016626326472966378,0.9028161303671245,0.00027772035809376863,13063.0,2053.914984226227,0.03891238626287731,0.6324786324786325,1.0172526041651162e-06,0.0011049756816772362,0.054705810546791564,0.284872316846226,0.39355031929704054,0.2302443560428471,0.03422265146287669,0.0012985528684110097,TazeYaprak
137.02422735546673,7.621787969170471,0.1634533574853299,0.01741264764160268,0.9437613601219459,0.00030451437853328553,15749.0,2021.1799216270447,0.04844543907485472,0.5,0.0020075779335140937,0.008360739315244598,0.05832675111051153,0.21519936954241067,0.348441808363439,0.31546331667384453,0.05016341863886337,0.002037018420646402,TazeYaprak
123.41149482771291,6.930208483515997,0.1887337252446527,0.019390196462026707,0.9514573990455781,0.0003777673139941364,6491.0,1125.200133562088,0.0644261119730855,0.9264705882352942,0.003716263116569085,0.022777362898249567,0.07753954120698958,0.18844197591117087,0.40428819843305364,0.2791087431061916,0.02366727941172857,0.0004606359145213561,TazeYaprak
163.44656391172126,7.729624122933521,0.1802524162178037,0.01672806351151244,0.9457727067004233,0.0002813525165263656,8954.5,1056.1879386901855,0.10087157396157785,1.353448275862069,0.0023725322648554498,0.017537375057418106,0.09421428605607562,0.24013887293161895,0.32093511843164885,0.26705124798902263,0.05736646465217959,0.00038410261565505145,TazeYaprak
145.69766685289636,7.345277267156838,0.1856445999700459,0.01710835995967585,0.956665215515778,0.00029400088673602607,8701.0,1277.8519344329834,0.06696038826115834,0.4298245614035088,0.005003745883111239,0.024646474800820245,0.07866540048624641,0.19014144598239988,0.31120048971689657,0.31155963972455525,0.0779076071345318,0.0008751962699128807,TazeYaprak
226.29999298647658,10.798803570141104,0.10824236212529013,0.015581606658622864,0.8714996726772469,0.0002436903617124716,11817.5,1762.1677285432816,0.04782345934672714,0.6130653266331658,1.4361213235272205e-06,0.001303998161762717,0.037905464920285306,0.19461292939997882,0.4414782954190568,0.27460757984792644,0.048243444106084436,0.0018468520220560058,TazeYaprak
182.08168369738038,9.46997534001342,0.12427231828850291,0.014703869325576215,0.9386964936859047,0.00021690809735397344,27667.5,2098.510876059532,0.07895094521972087,0.54296875,0.001837457395064599,0.012149526558651808,0.06660952100556629,0.2144113578045136,0.37407047047277486,0.22447210573648346,0.10182171989874166,0.00462784112667799,TazeYaprak
186.48743124640635,8.229948817762542,0.17569622027729098,0.01602926023365433,0.9463560798438427,0.00025816908761502454,11288.0,2115.8317239284515,0.03168579556280359,0.41796875,0.005182722503055817,0.045684216069170495,0.10750044280391075,0.2673681520944144,0.3187824922444584,0.2121303184356443,0.039565262139951846,0.0037863937078679976,TazeYaprak
159.2089340938632,7.98545805699727,0.17713795388942583,0.016223650498355287,0.9534245526877,0.0002644516327532749,31137.0,2673.017576932907,0.0547624666356975,0.8745098039215686,0.0021322212967185604,0.014967376110577654,0.11880487180205526,0.26333719889282736,0.2688082227515813,0.26029327990922285,0.06739244648044247,0.0042643827550486405,TazeYaprak
128.50507084114457,7.187893163086285,0.182800582356009,0.01746796503443131,0.9637668506137685,0.00030651491638527905,17749.5,1650.6875021457672,0.08185896727879316,0.6224899598393574,0.009971528894745816,0.03293002259492526,0.08558092304291479,0.1774869432633628,0.32030262666541215,0.3217438940903484,0.05175691492409378,0.00022714652267122218,TazeYaprak
147.22371063713854,7.668529276600347,0.16818877906129648,0.01671764339118774,0.9513360011937686,0.0002805934627968715,12488.0,1693.9839655160904,0.05468700806672162,0.5478260869565217,0.002143710267306779,0.02878633386944138,0.08820794797397696,0.21393719841419567,0.366811774758172,0.24902182186313096,0.04809031766996336,0.0030008951822870895,TazeYaprak
139.9768428308841,7.320295439254067,0.17792474630136967,0.01846671610233973,0.9576982099422666,0.0003424367193213271,9513.0,962.5483312606812,0.12902749623559595,1.0,0.0034642836626785395,0.023272046855816214,0.09136879116867186,0.14540710449196567,0.29121554505546876,0.37847439634975943,0.06612369312949466,0.0006741392846190699,TazeYaprak
163.10025835916846,7.587687142565345,0.17734906426025518,0.016493342503706723,0.9578134063456056,0.000273592405369516,9471.5,1017.4772621393204,0.1149685892351986,1.406015037593985,0.007909019320606805,0.031145342658500275,0.09464045505883233,0.18214913162502844,0.2874392640352539,0.312380383060951,0.08310151941623342,0.001234884823067969,TazeYaprak
144.2749014651834,7.901341085760215,0.16467068201135285,0.016865280590103143,0.9510923118899107,0.0002854483600731162,9795.5,983.8204109668732,0.127175898919297,0.44660194174757284,0.0036975935393632315,0.024595492493835025,0.08094267003664123,0.17324960745990728,0.3478528191056275,0.32394953708973234,0.04535546396285969,0.0003568163105080342,TazeYaprak
160.7629451112589,8.052209366589786,0.16413564312376316,0.016513671081084678,0.9448318070420632,0.00027383452899319607,10024.0,1081.602153301239,0.10767523681178773,0.5888324873096447,0.002177459118409668,0.019081803864094662,0.07923033471188892,0.18996564079704473,0.3521669873998916,0.29319404153218115,0.06317958457787537,0.0010041479970879289,TazeYaprak
180.52314824827306,8.242109435072992,0.16619104281272415,0.016057406066352684,0.9595081276448643,0.00025867860555558975,11730.5,1011.820411324501,0.14398575089590313,0.4622222222222222,0.01582007314642194,0.05640109193082694,0.10768887388923522,0.13118657130801062,0.30342455097227,0.3339661841293922,0.05057456820611152,0.0009380864162056769,TazeYaprak
135.66764801999472,7.825529994473216,0.1542851324296649,0.019035487452218246,0.946968637373592,0.0003635520397808451,5467.0,440.7350609302521,0.3536744908522661,1.2395833333333333,0.006142350739114404,0.015219774433187564,0.056727570178375465,0.10286446365639944,0.3683139576625815,0.39748744590549007,0.05099104338993441,0.00225339403339117,TazeYaprak
157.5541469176549,8.033537416498378,0.1664478745183651,0.015262390675741606,0.9599760205846576,0.00023383721920635644,10256.5,1135.8447939157486,0.0999012827715243,0.48847926267281105,0.0016716452205856856,0.04116857192089308,0.14376262589975006,0.1723579556331623,0.2982919730387606,0.2822328455303597,0.0580732756969089,0.0024411070580538743,TazeYaprak
134.94244293060476,7.196662972174098,0.17189068931749088,0.019578231332809615,0.9559329801485389,0.00038471809608630914,4565.0,552.9015817642212,0.18765277067626046,2.140845070422535,0.0036739573759135115,0.01800902123541983,0.07424400179982545,0.10498519598252977,0.28017877316899653,0.43213315477492265,0.08633392932355077,0.00044196633731550226,TazeYaprak
304.4761928855596,10.861545904820158,0.15371817208416094,0.01953197618567921,0.8083076906336278,0.00038294394102778316,11203.0,1591.1900280714035,0.055603240576983716,0.9342105263157895,0.001015098422179824,0.00535386029410948,0.03134616029024018,0.13959829293024054,0.474732342887603,0.31135331696107493,0.03537986605769722,0.0012210621553290196,TazeYaprak
153.3279351992044,8.02205284626098,0.1639185235334889,0.016482035396439578,0.9609309805082316,0.00027270489499564804,9412.5,1077.9036691188812,0.10180168179849065,0.43805309734513276,0.008007932176764744,0.0486711090685532,0.11712227615637769,0.15454179352381447,0.34794143975896674,0.2704944087005675,0.05116672889851259,0.0020543117149172093,TazeYaprak
167.48232895701486,8.054990283184328,0.16595491616807914,0.015896051019356792,0.9492856377201193,0.0002536591260331802,7689.0,968.2051850557327,0.10307300002384602,0.5,0.0013986624923385527,0.0315727084290266,0.11660652908606599,0.20257520488633315,0.33654725317810175,0.26164556765048913,0.04806937423399526,0.0015847000421238084,TazeYaprak
174.9760761335837,8.578994001706135,0.14910147839165058,0.015179807728833318,0.9452152684392514,0.00023135610116345497,23791.0,3595.3304077386856,0.023128365682052593,0.90234375,0.004052495021439896,0.02558785232839233,0.07438378427531543,0.23651571834752516,0.3471446916163514,0.23709435556412956,0.07257612639771396,0.002644976447606259,TazeYaprak
217.88373510188848,9.961763834823024,0.1220941338465562,0.013725284470539082,0.9418776496563538,0.00018905954956792857,8352.5,816.9087220430374,0.15728209391365364,1.136,0.008149689319074577,0.04171316109445229,0.098597986557754,0.21325396369452762,0.3042589972996278,0.28046749339341387,0.05256401510791609,0.0009946935317080414,TazeYaprak
140.55751248017927,8.123189833837975,0.14658445009130544,0.018022996897621924,0.9335074526562406,0.0003259687774738358,16828.5,1804.628626704216,0.06493511089626396,0.9,0.003478824391079251,0.014005354338979857,0.026364973479586,0.14617710487493019,0.41703138164381837,0.3343115713077005,0.05763956705720366,0.0009912229051761837,TazeYaprak
164.21858930459683,8.410276726499351,0.1502002979593843,0.01700572158938912,0.9565677242717885,0.00029016410625410755,6806.0,1156.1706941127777,0.06398201228538052,1.75,0.007099405924468336,0.04666107776111142,0.060611679974631794,0.11151912913585929,0.31350121591557567,0.3729301901418941,0.08576061772352106,0.001916683421412517,TazeYaprak
143.01555525519447,7.8223127823432685,0.17158230316312278,0.017809674757399755,0.9465319390681995,0.00031843135788649853,14082.5,1551.6925539970398,0.0734984654510785,0.5870646766169154,0.0021624396829011128,0.01958947275196154,0.08176455030241817,0.20615228391129703,0.384780943626864,0.2666651707065476,0.034522501627551466,0.004362637388933295,TazeYaprak
156.65645262639782,8.455190341455214,0.15032220371603353,0.018063871015051226,0.9150023750507933,0.0003275103754480661,8744.5,927.1929924488068,0.12782169280000735,0.5732484076433121,0.0005276549096192932,0.003887041877291865,0.031227381089106783,0.1414241416779399,0.39522890577069003,0.36657559263884004,0.05749780991489385,0.003631472120092499,TazeYaprak
144.33514372477197,7.9688207660515,0.1627213907356075,0.016681745054255664,0.9524085409321628,0.0002793407742720735,17828.0,1290.1706948280334,0.13459165808149354,0.6899563318777293,0.004979810527719117,0.03501533059507525,0.06882144703574058,0.20929517558944785,0.36024128034948105,0.2809463800164216,0.04025693407239564,0.00044364181219295063,TazeYaprak
184.6148914029526,8.5686595149702,0.17248461913432436,0.016182584797547382,0.939802535157196,0.00026294523207947835,9384.5,1656.427615761757,0.04298095667897471,0.46835443037974683,0.00012165144378045174,0.03740731033618681,0.103664742263935,0.256522085152029,0.36745246438363055,0.18783665077330397,0.042252783681767624,0.004742311963840804,TazeYaprak
149.551979932604,7.743167756992506,0.18419360826041453,0.01621182122421278,0.9598052920306359,0.0002640264439834449,27154.0,1595.2489025592804,0.13408702916292561,0.640625,1.1907839307579886e-05,0.028231871361782918,0.20665007946506467,0.26506987926966297,0.2545311422905124,0.18833630131711454,0.05304523542807468,0.0041235830269544934,TazeYaprak
152.12478806229257,7.217468731978213,0.2083494819895036,0.017106150000086834,0.965236263015655,0.0002946492456800875,18467.0,1811.8418281078339,0.07069124820493794,0.4140625,0.0033907422832362487,0.05028423234520515,0.19775582107812964,0.25280731799517187,0.23645366593867106,0.19708694757169673,0.05214777927764712,0.010073493508716249,TazeYaprak
216.38880585292992,9.6055845858565,0.14167909719007382,0.015509331427048911,0.9289169776901629,0.00024143168973121958,43336.5,3487.5343811511993,0.044774083199892574,1.0,0.00010986328124983237,0.02160614612052463,0.15704597024332656,0.38489846622183915,0.2571210075823282,0.12362329819604291,0.04825942095580871,0.007335827397354004,TazeYaprak
249.45412069577344,10.22485493860518,0.1472843602907676,0.01445471521822192,0.9347974710572718,0.0002097856951061457,14787.0,1589.0478920936584,0.07358951892037473,2.230088495575221,0.0005132338579955407,0.03393907733986857,0.13902450262310287,0.19726694144424567,0.27540690104124654,0.289174158432463,0.06062376732910478,0.004051417930447251,TazeYaprak
231.82039649714957,9.831408697976759,0.13804302932178553,0.014208019717918897,0.9359126647579379,0.00020264102316646244,26681.0,2060.7190269231796,0.07895404863451973,0.728,0.0003010469324443936,0.025500428442822617,0.19596126780760542,0.33023986816355855,0.25207286161496456,0.12427625469114,0.06261632582711031,0.009031946518828132,TazeYaprak
255.2227064860911,10.572273539623906,0.12851305279793374,0.013211182105224064,0.9362680846590757,0.0001751222558989875,8822.0,831.3523727655411,0.16040083921441775,0.5568181818181818,0.00043011833639640287,0.038802980909101344,0.10951113233362585,0.16866838043785545,0.2721880146097257,0.31881097531737507,0.08530967562793351,0.006278722426461009,TazeYaprak
231.8582188190902,9.82318049247877,0.147203849400161,0.01391224367374436,0.9505976178991605,0.00019423647104527635,15228.0,1925.841829776764,0.05159546148274865,1.4065934065934067,0.00016521379059411073,0.05222712498077203,0.15164441875359827,0.16955315084992512,0.2240170946304793,0.31205228917691347,0.08381365607753749,0.006527051738654256,TazeYaprak
248.82685041511104,9.851273233251593,0.14770668104574164,0.014064578937833203,0.9354906975532695,0.0001985070925050451,9530.5,1181.8691779375076,0.08574064300071176,0.46443514644351463,0.004002051259951001,0.0374640969668546,0.09739182416115655,0.18599326937777996,0.2995724547138506,0.2904552983298263,0.08114797554751706,0.003973029641538056,TazeYaprak
211.00839333130097,9.54807359248855,0.14157848972731335,0.01398720529453232,0.9447561016164459,0.00019642475444871208,38650.5,2844.3830201625824,0.06003283122454367,1.0,0.0004617130055140015,0.02888381060427579,0.17659277822430167,0.3041669060197565,0.23603318158281997,0.1810716816020521,0.06654226265691436,0.006247666302839732,TazeYaprak
151.98136679702912,8.153909058415026,0.153595061427506,0.016261049794277685,0.9502839969142479,0.00026540860235706306,46783.0,4059.247146487236,0.03567852927533313,1.0,6.396723728544164e-05,0.015453622855368583,0.161427815754962,0.3580375521785284,0.28663078756849647,0.11208549948282526,0.060424984202573216,0.005875770718434662,TazeYaprak
164.57113697256116,8.360362721068794,0.15373072076271554,0.014945988020902896,0.9627422735910399,0.0002241069500996609,9927.0,1248.915862441063,0.07997633950202519,0.6,0.008200731464448273,0.03398353726250943,0.1327601414098771,0.1453203388286692,0.255507465436957,0.33080492206597795,0.09011194565703155,0.0033109178730035267,TazeYaprak
183.39834832156237,8.873677521866554,0.14590261832182336,0.01390619697550853,0.960851023633062,0.00019418212243501505,7636.5,630.6589418649673,0.24127654457228978,1.1287128712871286,0.0029542810776609337,0.043521537032715454,0.13310205796165353,0.15836546654770567,0.23458862304651706,0.3088982077201169,0.11452229817690852,0.00404752843519603,TazeYaprak
161.12147908857244,8.009786710639938,0.17146114275906627,0.017172379529224964,0.9704674439658393,0.0002958558641152763,17194.5,1228.6732215881348,0.14312866788217274,0.5546875,0.0015452067057268092,0.05886607450588446,0.1456799675434358,0.08765426336536869,0.15554857440999556,0.4079331940289425,0.13576414818836505,0.007008571250755238,TazeYaprak
169.79051889599208,7.060031132857832,0.26162438571813557,0.02463511231922704,0.9483236048887994,0.0006097878768854559,21875.0,939.5289988517761,0.3114135799836014,0.515625,0.0,0.02743189194618977,0.2714088589533237,0.3573508468323285,0.1731372908047297,0.1313647700289049,0.03559127508419812,0.003715066348799479,TazeYaprak
234.16547450200284,10.050759638720614,0.13452826415126876,0.01508075980896582,0.9150785875164501,0.00022820089266350438,15336.5,1800.7463777065277,0.059433461265465636,1.7181208053691275,0.0002783681832103597,0.010336722579641095,0.07228722665813116,0.19450875076563465,0.3949699850637357,0.24860774021484727,0.0658572327855919,0.013153973747682138,TazeYaprak
155.8531737342652,7.677501576917519,0.2006378109527109,0.016317980171750776,0.9674201299681826,0.00026770483294798116,9271.5,821.7960237264633,0.17251695954293667,0.42857142857142855,0.0017484178730059112,0.045544972139176826,0.15574891333462754,0.15015510110271205,0.23810957366308644,0.2986837948065295,0.10497592103231526,0.005033306047020507,TazeYaprak
243.26814173034882,10.377791324250058,0.12175392555965087,0.013865481497720744,0.925674410187985,0.00019285825297930554,14736.5,1963.256042957306,0.0480452355208327,0.4765625,0.00045800302542822307,0.027309881472078436,0.11040128820065878,0.1840214748005771,0.33377458160947865,0.28713743920375906,0.05300759708172056,0.0038897346047734776,TazeYaprak
180.39788876274403,8.156400513023947,0.18570401499963238,0.018198882933746052,0.9595872248880458,0.000332960386775517,30754.5,1832.3199716806412,0.11511075546793667,1.024,0.002290314319083516,0.0332551843979272,0.21642527860720656,0.2539408365881542,0.18127225988023812,0.23825551949258988,0.07097257726321884,0.0035880294500558003,TazeYaprak
230.8520651161842,9.683687719266516,0.1413528768105908,0.013882797397128848,0.9484295403535985,0.00019341413649068414,13180.0,1130.8082166910172,0.1295231396708553,0.4453125,0.0013036391314318351,0.03476987352552907,0.10278212603385055,0.13671402276710148,0.22619263892045766,0.3380832447720025,0.1513373281439173,0.008817126704183852,TazeYaprak
152.01382124663832,8.013247789311716,0.15580440707634052,0.01608715300996776,0.9580669655533249,0.000259628892697168,17247.0,1794.126100063324,0.0673313774248261,0.5411764705882353,5.259794347418449e-05,0.017384906843570296,0.1155964570885185,0.15655529545778812,0.25449829101523674,0.3625488281244468,0.08729367723638636,0.00606994628905324,TazeYaprak
281.03205470853175,11.314409421856775,0.11311788949346163,0.012348679548472082,0.9286409775741448,0.00015312106469051476,9555.5,741.0264720916748,0.21867333843022843,0.6440677966101694,0.00025586894914176656,0.03262107699520145,0.146016618317026,0.20127395929044048,0.27222284055182117,0.27060457117375986,0.07376541436875994,0.0032396503523234887,TazeYaprak
267.05290851176255,10.966517039720133,0.12665175037343923,0.013259711801036123,0.917434047689989,0.00017651189575152918,21337.0,3471.933440923691,0.022243362492086333,1.3473684210526315,2.0823759191144724e-05,0.011800010531538374,0.13323902803288498,0.3002596387671583,0.321923229740624,0.15543972838134973,0.06546002556285965,0.011857515222867937,TazeYaprak
164.50061986375903,8.169395364763517,0.1779913630266879,0.015616843390388001,0.9662492799644193,0.0002450497782767574,11371.5,492.0904003381729,0.5901166031544679,1.407079646017699,0.001071047315408905,0.05020979338993565,0.18674926757784008,0.17286634258169087,0.21803882075257788,0.28103500066976106,0.0839889227173963,0.006040804993863334,TazeYaprak
244.09419264826982,9.931512278931152,0.15279051554180564,0.014864184944527858,0.9305415700667743,0.00022170278936234347,18551.0,2337.02768266201,0.042682463336665324,0.57421875,9.957107843122069e-05,0.04568134382652344,0.205751247031702,0.293594420189503,0.28400083055639874,0.12154762417643825,0.04419280407468745,0.005132159064789963,TazeYaprak
235.61319791367254,9.890507692353893,0.1370878870970409,0.014155577149491625,0.9276591813091215,0.0002012879205024054,15019.5,1636.437718629837,0.07048007816497974,0.515625,0.001042384727326841,0.03380605660227686,0.1557017606845051,0.28726417691056055,0.32270926681170126,0.1505019244023438,0.044796752929619134,0.004177676930140687,TazeYaprak
163.2747729839551,7.5323893754806015,0.19222914232440647,0.016622046302860165,0.9595239837025834,0.00027742825303549384,10572.0,980.1808012723923,0.13827849208378984,0.34375,0.0006292604932588442,0.04261492560885044,0.1494515213309607,0.182943426393716,0.28421265845161914,0.2794273825248493,0.05468145632268002,0.006039368872539807,TazeYaprak
183.57560747369098,9.609280760404495,0.12310276996443015,0.014770045480072064,0.9371577337938243,0.0002187932816584067,18014.5,1941.966719508171,0.06002725872527957,0.484375,0.0012065214269283064,0.016311705346176094,0.038774258482630795,0.12668056114027856,0.3152649524160325,0.369741163066225,0.11528122845800419,0.016739609662198725,TazeYaprak
495.50131124449774,14.768110912869938,0.10324424117143131,0.011811683295669218,0.8726141801877803,0.00013963536487884642,12739.5,1698.2854797840118,0.055506117960409114,0.515625,6.983139935651116e-05,0.03744506835931788,0.11884167241097067,0.16390243231056492,0.3010707481230088,0.29935183057552356,0.07042613309961679,0.008892283720115109,TazeYaprak
269.58796376394383,10.799170541378007,0.13803475970661375,0.013986262107033586,0.9151298118865168,0.00019625127742554604,13979.5,1972.3931258916855,0.045155904085680765,0.48046875,0.0002385756548709596,0.029226385378325507,0.10771065506264205,0.23394847196655483,0.352109722062116,0.21940511067674837,0.0524215399049445,0.004939539292271877,TazeYaprak
229.6587999657654,9.267543417796107,0.18852700017224866,0.01610873091393535,0.955787849841008,0.00026053089569632833,27285.5,1602.496595621109,0.13352037684564333,0.77734375,0.0002852495978855944,0.05327106550619936,0.18227545046311036,0.21408164828398707,0.1780653411264134,0.2607371610749698,0.1010928284886631,0.010191255457245479,TazeYaprak
134.5470417477675,7.5820221339147595,0.18018678176164338,0.016124095948808682,0.9651479205006285,0.00026132407617163883,3824.5,412.4335457086563,0.2825378041815302,1.8783783783783783,7.635378370086398e-05,0.038417382333734276,0.09640520881189335,0.1584242876835818,0.3024607938874062,0.30767947926193856,0.08898237639768893,0.007554117838530142,TazeYaprak
136.97329550233655,7.295865968017056,0.18966219671443157,0.015742579383379213,0.971897411817271,0.0002488958938752059,8361.5,836.281304359436,0.15024128251509586,1.5081967213114753,0.028529926374803293,0.11154844994621461,0.14962397556656096,0.22584527707532948,0.303416712143379,0.14815452426065004,0.029697792202773313,0.0031833424287635256,TazeYaprak
198.6120457876887,9.004392781622629,0.15161856778808372,0.01560695310403228,0.938238131855901,0.0002445317409990433,45129.5,2577.7312175035477,0.08534834886955912,1.0,0.00011554792815546097,0.01731699027264515,0.16961909275403042,0.38104726753924706,0.24086106244218755,0.1255380069506356,0.058878102021968956,0.0066239300896038635,TazeYaprak
212.2068596813828,9.419313575307514,0.14079802888400758,0.01547033692650735,0.9341185126191323,0.0002404006939307662,4621.5,363.7228692770004,0.43898694456820403,1.2771084337349397,0.0008974561504275527,0.04190039541200715,0.10372230679365303,0.23125759947498417,0.40555144665226117,0.16072824515523865,0.04848231895289783,0.007460231407004549,TazeYaprak
154.03623652862242,8.433276609356932,0.14719634151507072,0.014635357224577615,0.9543637365906696,0.00021514863484258304,24999.5,3285.5343841314316,0.0291024233167254,0.8671875,0.0002385158164824793,0.02739144119557708,0.1306070963539674,0.23123168945277217,0.3144175211583744,0.2396259981039541,0.052659696691096075,0.003828041226250287,TazeYaprak
52.24534566032193,1.9480111916089462,0.6854684803812885,0.092401491826487,0.9885580302428079,0.008588430865643409,12095.0,593.7300099134445,0.43115927718085023,2.2524271844660193,0.00028471105238927184,0.09133504231756899,0.07542078354767902,0.024324304917242325,0.30342419194193904,0.43923668954819617,0.06596601897584901,8.25769761028152e-06,TazeYaprak
58.51688791570483,1.7983872488946602,0.7109567337985506,0.09790269566958887,0.9872271408545009,0.009651543556887337,10245.5,513.2274824380875,0.4887910144735171,1.25,0.007038849475326274,0.09748235964292726,0.036205994849056275,0.010869882621000573,0.2674255969473556,0.4984239765234427,0.08248614142910202,6.719851026337794e-05,TazeYaprak
71.23079605800527,2.2095464785178143,0.6779341355084353,0.09104484706201742,0.9871830563217022,0.00832740244678251,13573.5,593.0853477716446,0.48491690157358996,1.9243697478991597,0.0009409586588527318,0.11278872022424581,0.07208826401643412,0.011426200118701926,0.2233019062113628,0.45586511948459846,0.12358009487956009,8.736404718123932e-06,TazeYaprak
41.19935242755174,1.7718912948145094,0.6855459042511507,0.10254902334196722,0.9921627976419976,0.010576110988698392,12168.5,509.9137759208679,0.588103034463501,0.7380952380952381,0.0,0.01726457184433641,0.12535502115866287,0.03297322591140801,0.05438334147127127,0.38450987572704803,0.33680060891492725,0.048713354970820286,TazeYaprak
54.18409154531865,1.892614769559796,0.6996680966178268,0.1027877225577741,0.9871240273613912,0.010631018552515884,10488.0,595.0437189340591,0.3722243602055265,2.1553398058252426,9.394626991407258e-06,0.056623930089527576,0.08272136613421815,0.015632479798536197,0.2674472584439854,0.4165962368827896,0.1609158983415129,5.3435680912908684e-05,TazeYaprak
60.7475877967606,1.995415915753563,0.6930508878552845,0.09388443021874276,0.9863145292020543,0.008893038693746434,11518.0,601.3624790906906,0.4002342798786663,3.657142857142857,0.000415757123161131,0.08708711511935242,0.07131455365338384,0.015883681353376512,0.36181131998642724,0.37414149863990087,0.08934320188022514,2.872242647054443e-06,TazeYaprak
35.02476634587654,1.6083116169261933,0.7035132613306883,0.09912367382780782,0.9914155555832824,0.009885810221986256,10182.0,463.04371666908264,0.5967589841590467,0.6835443037974683,0.0,0.027753822476213788,0.08786633061414291,0.029272760129397734,0.17944060680885618,0.382843915153368,0.2911710252944391,0.0016515395220563053,TazeYaprak
46.79358723207418,2.6525752114571386,0.5580798243186799,0.06575365669075586,0.9898308803254452,0.0043487883064930455,21450.5,718.1391724348068,0.5226729806946807,0.7714285714285715,0.0009666891658992609,0.12797839594802782,0.17994570264601836,0.13848589728839167,0.2840105842137212,0.2679017908428814,0.0007109398935344513,0.0,TazeYaprak
43.49901621371493,1.6681505310457008,0.7384699835189934,0.16096891550640832,0.9931352173984788,0.025979164137936845,9856.5,429.34523344039917,0.6719226773610151,0.8333333333333334,0.0,0.008772188074435146,0.10135115081173257,0.037692380418906914,0.007876048368554158,0.029433366364078863,0.41788569431615163,0.39698917164461467,TazeYaprak
52.31321923959422,1.6281918763215644,0.7503922395593747,0.14666403012715187,0.9907322155974658,0.02158305855063926,8833.5,574.1492756605148,0.33673870304949804,4.413793103448276,0.0,0.007445152133107513,0.0898206523819095,0.037429989085420806,0.004671223958326204,0.04116940965833183,0.4646237840832373,0.35483978869814103,TazeYaprak
49.84412137158638,1.9414616974240055,0.702700804580667,0.13887306333514582,0.9926204778226597,0.019354788817112705,13090.0,553.4457385540009,0.5370310729607788,1.6446280991735538,0.0,0.0009604061351088292,0.08053660673241388,0.10842422784526953,0.012381819182732325,0.02027881098725461,0.3303130505126701,0.44710507860302473,TazeYaprak
59.05087826797259,1.729106022923831,0.7906572758924091,0.4179204106979864,0.990713303565313,0.17467014501953698,8677.0,485.44573736190796,0.4626984850632392,1.6481481481481481,0.0,0.004857141831334501,0.074192121917013,0.04744807224640429,0.007795864927990549,0.003925039253976854,0.09312067966820992,0.768661080153545,TazeYaprak
136.27141248257152,4.489455122428579,0.49499310524721346,0.05516594045428797,0.9894492538991136,0.0030716420163529744,23815.0,657.0681043863297,0.6931698712932441,1.4423076923076923,0.0237082687078376,0.16664350921007048,0.11101959826882568,0.044466325348430924,0.06210692162597755,0.10655673157918794,0.3362591911759576,0.1492394540821865,TazeYaprak
66.38537386461843,1.5888643490484278,0.7356635941045716,0.08881779955515316,0.9911474858892521,0.007948146054249249,9701.0,552.3330411911011,0.3995989336565303,0.2827868852459016,0.0018530153760694774,0.08540894751442236,0.06104257621007841,0.003212184532011028,0.0031668868719314427,0.23647544711207824,0.45844654756363845,0.15039439481824476,TazeYaprak
67.26380565767974,1.6122172061226527,0.73350019183049,0.08826910407766293,0.9893802169509976,0.007850362854606194,8027.5,508.83556735515594,0.38961463060999213,0.23684210526315788,0.0025655709060928987,0.07334229712381576,0.04728477328424155,0.002647010952814587,0.005583400352319919,0.3386327406934173,0.40094323251700437,0.12900097416876757,TazeYaprak
77.41495245218101,1.983074628748546,0.7017544509372933,0.10742298394779401,0.9907313762638863,0.011595154865229721,13808.0,612.4995626211166,0.4625184659867734,0.47346938775510206,0.006078563016994402,0.1306898528452356,0.07507778990490992,0.0032064400467169208,0.005727012484672637,0.33050339642642623,0.43747468836100495,0.011242256912513484,TazeYaprak
69.99226585027243,2.2178611441512395,0.6512639143643235,0.10232152522272903,0.9930599507197254,0.010510227231031092,20296.0,652.8670936822891,0.5983713057375456,0.9086538461538461,0.008794148763007416,0.19816439759467308,0.10322941798774073,0.004448505476402525,0.008203603707095329,0.35111694335883953,0.3258751962694167,0.00016778684129876366,TazeYaprak
66.58769152789665,2.367589764153163,0.6150024927221318,0.09272583096577479,0.9942497335653812,0.0086225714717632,25870.5,699.2518677711487,0.6648863487941843,1.2404371584699454,0.01645436006431313,0.2767862357341058,0.10134869743780488,0.005935609106914961,0.009501797545175456,0.31587350882687737,0.274054254269649,4.55370136335091e-05,TazeYaprak
61.65884873005456,2.141161151960733,0.6353241718039011,0.07538406181315759,0.9946678952464254,0.0057147598826161475,21688.0,611.6122596263885,0.7285795954828598,1.344155844155844,0.016901472503037945,0.24227755677429333,0.0723492192285967,0.004098869772512128,0.00933419021904214,0.2993533863736244,0.3482639686728753,0.007421336454492356,TazeYaprak
54.6255933715392,1.6506787954152293,0.7170907757067555,0.10701892193401145,0.9866029854289872,0.011510119804054664,9406.0,581.847759604454,0.3491371846877876,0.27058823529411763,1.5198950673996452e-05,0.06394653320302744,0.07824443742328747,0.013242474724244507,0.1718018774890149,0.5807971430750942,0.09194060680898951,1.1728324142138976e-05,TazeYaprak
50.855247305723125,1.6050948403258372,0.7173597084079253,0.1073389545420091,0.9870264169382093,0.011582890157036226,9304.0,562.2497810125351,0.36984604240635716,0.21653543307086615,8.975758272045182e-07,0.05658892463226661,0.08282201430364201,0.01460302016312111,0.17310156728680706,0.5815595439827217,0.09130979051763018,1.424153645831161e-05,TazeYaprak
51.80186716046644,1.7885810745867028,0.6849156758011221,0.0962147862223533,0.9875596545340746,0.00930660724888974,10907.5,588.3746712207794,0.3959379666424556,0.3441295546558704,1.4361213235272207e-06,0.05722189510561124,0.10417426614184473,0.026608276367146914,0.19666939529688138,0.5375357833554911,0.0777838613471545,5.086263020825578e-06,TazeYaprak
61.64465707299962,2.1174647971933434,0.6408606745003764,0.0776117003196932,0.9943619413461435,0.00605700351329671,20695.0,618.5828222036362,0.6796410207111863,1.445945945945946,0.012458172966433196,0.22495775409738955,0.07891073787901559,0.004222555721500909,0.008897908528632262,0.32332703833437215,0.3412658093017155,0.005960023169414927,TazeYaprak
54.73225545763565,2.188043856329269,0.6254424315542899,0.07201023381738991,0.9908531056289535,0.005219476586867303,16007.0,606.3818117380142,0.5470505719356624,0.8952879581151832,0.0,0.01969975490193074,0.20088865990701577,0.030800015318580447,0.08309798895131318,0.3480766146785438,0.3154806099681153,0.001956356272974958,TazeYaprak
55.513761609115896,2.3609838013023237,0.6001488574338995,0.07301565471637017,0.9923933542689771,0.005358563935705059,22051.0,641.3523746728897,0.673666170731036,1.5095541401273886,0.0,0.04161610322833724,0.2651457543462559,0.02976385378365555,0.04477892108985204,0.3317728678380356,0.2867422664862351,0.00018023322610266656,TazeYaprak
59.005595218784876,2.470469455858257,0.5866703276585313,0.06822173409984672,0.9928798848454558,0.0046781256849474555,24172.5,674.4823172092438,0.6677137141178133,1.618421052631579,0.0,0.020706775141665714,0.27161757525234287,0.06929614497155477,0.018595796472857654,0.1791398590683543,0.4103463565595759,0.03029749253212289,TazeYaprak
77.1629377973602,2.9765437722269312,0.5718632973246456,0.08776159206834996,0.9946915579370323,0.00771319604023217,27785.5,674.6244540214539,0.7671917449662787,1.2681564245810055,0.002222098556215972,0.132404940735858,0.22812625660580996,0.06080741134335081,0.006998458563102066,0.020367910347701804,0.26131896972616386,0.28775395412027166,TazeYaprak
97.83115434869563,3.4847914413929173,0.518899527899742,0.09195238607561594,0.9937691793462518,0.008463524837922972,34378.5,776.2224303483963,0.7170086764725343,1.0458715596330275,0.005986591413900179,0.19494593003187163,0.267867323931117,0.056435379327426115,0.008656819661445122,0.012042176489718146,0.20062046424984717,0.25344531489314875,TazeYaprak
77.42837320681768,2.372681705954367,0.6295178985404041,0.07660610903472662,0.9942054736867965,0.0059067340718587736,20528.0,679.8965306282043,0.5580470965860392,0.6055776892430279,0.005873437021283933,0.17648465025631774,0.12244119083161462,0.011008707682274866,0.0066617479511234135,0.06367402918188829,0.42591845942413564,0.18793777764983582,TazeYaprak
68.13540472714669,1.681529805243136,0.7824240108724683,0.39790376011410766,0.9916714054083766,0.15833168927652738,11283.0,574.7594460248947,0.4292024744682163,0.3562753036437247,0.0,0.008083867091746246,0.11833196901789537,0.04461376713764636,0.004890172621775624,0.00539197734757143,0.15801301843955692,0.6606752283422821,TazeYaprak
66.36488919525988,1.5833360366204898,0.7963538997200592,0.40311833634014566,0.9913074378310183,0.1625182476195971,10874.5,574.4335459470749,0.4141327474092874,0.26953125,0.0,0.0025486964805414556,0.10067102768826548,0.06064333448213782,0.0054827521828960425,0.005928608015462768,0.10330260033685247,0.721422980812318,TazeYaprak
71.76158016147492,1.7719487096308675,0.7403627146017218,0.1278690063072392,0.990429539867215,0.0164101759039423,10316.5,571.1198379993439,0.3974548080126944,0.23715415019762845,8.556889552683027e-05,0.062158023609739696,0.09070931228923042,0.0067644306257556045,0.005658677045028129,0.0509239047180597,0.6074909883377677,0.17620909447736588,TazeYaprak
70.99101613561956,1.91558577229907,0.7090281520052355,0.11724188158044703,0.9919149608798904,0.013798967120587622,12835.0,603.1025933027267,0.44342823717397994,0.3333333333333333,0.0002185297947300587,0.07822774251290143,0.11198293648497001,0.007568957758873249,0.007101919136784504,0.055758248123383244,0.5818942200894919,0.15724744609733968,TazeYaprak
69.12922294009356,2.1930121677959833,0.6447158848411809,0.09084161826645726,0.9941915094392675,0.008291712739221004,21031.0,684.180801987648,0.5645832895813746,0.6612244897959184,0.0013713761871915352,0.1464180142269518,0.1646130131737684,0.010729262408071857,0.008115940467971684,0.07594173655778871,0.4877547918574053,0.10505586511932498,TazeYaprak
81.62771398020374,3.23773704825077,0.5537800751096355,0.20333461756864601,0.9943018947745934,0.04135447071739607,32653.0,769.7199045419693,0.6925761274654136,1.043103448275862,4.5297660079587794e-05,0.049569941501915765,0.2674297257961605,0.16826536889144045,0.016904344745684977,0.008956969018062309,0.04858392453653756,0.4402444278485928,TazeYaprak
78.73226370266659,3.2742868728374663,0.548146574464657,0.1893167100740893,0.9947147182786283,0.03584760529361336,32801.5,735.7371509075165,0.7614794646049935,1.2704081632653061,0.00024432014016506843,0.07854715983060931,0.2654557770369723,0.14374808517134924,0.017251706590813123,0.008390419155930825,0.06340828689864729,0.4229542451739869,TazeYaprak
82.56331591215151,3.8966381019320195,0.4622426564970839,0.0473484265231323,0.9923991958848579,0.0022642874683014586,32272.0,803.7787795066833,0.6277152394353491,0.9336099585062241,0.020175410251960638,0.13419889562249743,0.2340279373464566,0.10001370299080936,0.022173832912037235,0.1290368173634675,0.328648107191594,0.03172529631965134,TazeYaprak
69.04411279615842,2.2908694822903954,0.6423609087496076,0.09682003170515055,0.9931181475624088,0.009418645923989973,18230.5,661.5117557048798,0.5235200404301613,0.54296875,0.000890215705421436,0.10861469343580239,0.14679774864024775,0.01996902765009207,0.01575107948450415,0.13170860140911303,0.4846908270136598,0.09157780665963353,TazeYaprak
61.06702555807716,1.8358456633265563,0.7050141280264325,0.11427347308238221,0.990711818775504,0.01311859802968936,10399.0,567.9898952245712,0.40506080663695776,0.2908366533864542,5.816291360285248e-05,0.03961415010334029,0.10278739181203675,0.01604668112359683,0.014163148169402413,0.10853211645969978,0.5960810044223439,0.12271734499445124,TazeYaprak
60.16073581975549,1.8312854881535467,0.6943455214024089,0.10429776803980889,0.991250876380957,0.010929762998358121,10775.0,568.5340512990952,0.41890368494890345,0.25196850393700787,4.4220569086942365e-05,0.04800073960240836,0.10430878283914838,0.010225363338679244,0.021759930778919002,0.14697439156304182,0.5476417691091519,0.1210448021980383,TazeYaprak
60.861496915247805,1.8159690233323238,0.7153152018258018,0.1241797215549401,0.9913994480791353,0.015475995752752197,10721.5,560.0904004573822,0.4294861422163512,0.2978723404255319,1.3284122242626815e-05,0.04659232345274754,0.10194390988801844,0.009973802753508062,0.01992414885873185,0.06385468127671036,0.5935407451545783,0.164157104491937,TazeYaprak
63.40068852724782,2.3550147178968914,0.6206266707732541,0.09140716447804725,0.9943332668745434,0.008392418027900125,19832.0,664.3818098306656,0.5646000484421686,0.6794871794871795,0.00027208515241992833,0.10911937040424524,0.16983295515445895,0.01927250880818137,0.02349261115575459,0.06848270191855375,0.4590702430867688,0.15045752431809145,TazeYaprak
93.88711742479457,4.215297331555318,0.42436523065237214,0.0439188524945095,0.9929356610631547,0.001945115881697934,35259.0,764.6072055101395,0.7578845994075707,1.0394736842105263,0.045397231158018976,0.20456393372747586,0.22539708754561197,0.06504235361126715,0.015374935374516986,0.06889379164741341,0.3225621840528166,0.0527684828813533,TazeYaprak
95.02240313221391,4.381502216695647,0.4751493570526589,0.22574919257920942,0.9918218105632819,0.050968316477743,39443.0,783.2934994697571,0.8078500550051854,1.1822429906542056,0.0,0.025194235408968917,0.20977519914183682,0.2330550848265439,0.13048945408221505,0.012773581112112842,0.024808397480048084,0.36390404794674863,TazeYaprak
66.26456010008025,3.1778517727555546,0.5452840590612895,0.06930000574033643,0.9921330973185213,0.004820736899601921,26772.5,708.2813069820404,0.6706365689099965,1.5705521472392638,0.0,0.0012548110064319097,0.1299027985215542,0.23766150381014586,0.04283160041353757,0.0497277353323384,0.32100153904286194,0.21762001187160418,TazeYaprak
78.45399361123087,3.551592070958218,0.5091548043551619,0.062292616117934116,0.9911497272619619,0.0038996925835508237,29566.5,807.359515786171,0.5700012975221623,1.028225806451613,0.0,0.005546360389850609,0.15832752900940916,0.2513528262863811,0.04044554467288556,0.06455341413899474,0.2812142166432597,0.19856010885769332,TazeYaprak
61.42126691056265,2.3878918264609053,0.619001473226003,0.0793194234901679,0.991153730128808,0.006333655731793307,18441.5,691.4528784751892,0.484708827480832,0.6958333333333333,4.9366670496248226e-05,0.04857686360669671,0.1947531307441881,0.03965089087386717,0.05216537176386039,0.32819764380311456,0.33541696585809705,0.0011897666781538233,TazeYaprak
52.768651284961564,1.8418015456794952,0.6944860878498336,0.09245641272397132,0.9894580761986024,0.008603848119299993,11739.0,598.2152913808823,0.4122170456434445,0.4458874458874459,9.274950214446636e-05,0.054737584731074575,0.11549497118165586,0.013111368815084158,0.1011499741496619,0.49516033097733897,0.2202318976903807,2.1122951133546213e-05,TazeYaprak
52.035714133385014,1.6880834745049524,0.7292968009901835,0.11456221375381977,0.9889973700855194,0.013188921232047497,10262.5,596.7178168296814,0.36218046643517754,0.27309236947791166,5.750469132956916e-05,0.04664665670948766,0.10268662396583594,0.011006733015455015,0.039580939797733763,0.5253852395442353,0.274610272575408,2.6029698988930892e-05,TazeYaprak
47.24394810589563,1.5968927666041477,0.7410779801013186,0.1263995383986473,0.9891983688818855,0.01605292098862023,9275.0,570.3919160366058,0.35824246021089806,0.2204724409448819,6.9412530637149115e-06,0.03788194843361253,0.09677016314323465,0.010327447629426638,0.016741464652241633,0.5269225475826828,0.3113353654445308,1.4121859681351003e-05,TazeYaprak
50.09632340926447,1.7846421748846144,0.7237683574442104,0.12732924628560488,0.9898771123551597,0.016281429549647265,10719.5,583.0020885467529,0.396318341183245,0.33992094861660077,1.5557981004878265e-06,0.04610876943543822,0.11029519473788313,0.010470999923390881,0.015167535520044276,0.5088332830683109,0.30910249597838835,2.0165536917861392e-05,TazeYaprak
51.67277131992398,1.9665279279603392,0.6948257475940169,0.11136455740411022,0.9906553647693475,0.012456119679628947,12617.0,643.2691131830215,0.38316035672366905,0.5040983606557377,9.574142156848168e-07,0.059643554687408985,0.12430282293562524,0.012232761757027899,0.040902350930544236,0.4954889634068729,0.2674109365421775,1.7652324601688752e-05,TazeYaprak
49.558480542338565,2.163305249182956,0.635664783329077,0.09056387882150974,0.9933014285030527,0.008248721950845984,18986.5,664.1391711235046,0.5409244174280458,0.8325581395348837,5.062327665433464e-05,0.11429192038125945,0.1686506084364767,0.01150285309434519,0.06223096660529724,0.43095469755219196,0.21230851715653865,9.813495710769347e-06,TazeYaprak
95.90583025458804,3.760939647611369,0.5025879972564024,0.05068868120017814,0.9914774495847897,0.002588973468022506,26179.0,690.2396771907806,0.6904990358497336,1.5345911949685536,0.010771029603231116,0.15356481215509657,0.19490416283671239,0.04125426049319684,0.00841082404640261,0.187450393975664,0.3558258655019079,0.04781865138626282,TazeYaprak
85.56547403642638,3.468181468665763,0.5194776429688538,0.05705653521954628,0.9920306987812681,0.0032818004063818822,24148.0,692.5239465236664,0.6327343914396654,1.6346153846153846,0.004569678213075135,0.1116997213922928,0.2045926561539463,0.047097897997017565,0.01105071423098804,0.14367903167104323,0.41360964307534914,0.06370065726476186,TazeYaprak
96.91782787869798,3.6194940047096074,0.504701928818731,0.056143565538701076,0.9906137426166582,0.003188924519902284,24281.5,755.8204109668732,0.5341314425677982,0.9372384937238494,0.0074485030828624075,0.10919787836993142,0.2037109973380776,0.05167816760485371,0.01064674527035753,0.16171474082772527,0.4217151716637252,0.03388779584094095,TazeYaprak
60.95926416522403,2.1564386594097846,0.648232306994271,0.08604476912197329,0.9911419027092457,0.007455724672551076,16425.5,674.1980454921722,0.4541020727677061,0.5411764705882353,2.680759803917482e-05,0.04431158327582088,0.18195980296387676,0.026993396235406104,0.018865248736184472,0.32367440017950033,0.40165602740058176,0.002512733609064795,TazeYaprak
50.11059062319681,1.7500426668828881,0.7069777920276927,0.11378111547454245,0.989352304716209,0.013007075141051946,11587.5,596.4335463047028,0.40933180127418484,0.3024193548387097,0.000464764763326497,0.08052218568079016,0.09363235772810466,0.008518293792113229,0.14190715714975297,0.5958124497348446,0.07914279114954212,0.0,TazeYaprak
46.30597222222128,1.6530575680026454,0.729737164217023,0.12743672248447255,0.9881018150943254,0.01630564645509889,9837.5,586.1492756605148,0.35981407192446424,0.21912350597609562,5.7923560048931324e-05,0.04996996112890662,0.09409598556205005,0.011214791092201026,0.1047712737437128,0.6501905254279295,0.08969523111965468,4.308363970581666e-06,TazeYaprak
46.184443828694576,1.8796593707948333,0.687236695826891,0.1109316759939406,0.9899710781904122,0.012350617372351252,12944.5,633.771639585495,0.4049762377606616,0.4166666666666667,3.362917432592912e-05,0.06454228419873732,0.12053952684571068,0.0179522944431405,0.15101629518972068,0.5691769469009391,0.07672771379047719,1.130945542277687e-05,TazeYaprak
42.88450534349692,2.24124842308244,0.6005042401334176,0.08132520585248554,0.9934133334381307,0.006644168291922236,22154.0,717.6366447210312,0.5405710721732209,0.8772727272727273,0.0008225384880502161,0.13546387915497105,0.19248052858809472,0.026146084654525066,0.14873208438626206,0.4448035146669071,0.051551370059663905,0.0,TazeYaprak
44.84476916931011,2.4847334558823633,0.5475748838602474,0.06529641618334545,0.9930701213234413,0.004283625862896421,29453.5,745.7960242033005,0.6654365422800016,1.4970760233918128,0.0009473015280316436,0.18959942985954534,0.2519765218095114,0.03904538622083505,0.1712157006354619,0.3310269823256283,0.016188677619460554,0.0,TazeYaprak
119.8158674247841,4.6524225658398395,0.49060515839270535,0.0650844410242931,0.9896494299668199,0.004271023909994481,27151.0,743.636644244194,0.6169843227564984,1.1711229946524064,0.012992769129116203,0.11974086387466408,0.17442028569213577,0.09300142175996835,0.021935376933943238,0.06423309924545978,0.4305119533158258,0.08316423004736084,TazeYaprak
119.90055274713478,4.367541044910353,0.48987196536066396,0.062291788290043976,0.9904769919233257,0.003917618999483857,26241.5,712.5655784606934,0.6494546666085842,1.1887755102040816,0.008633303174772365,0.14165799010012084,0.15265736299379276,0.06288541906010624,0.052217131969895816,0.07273021024805076,0.32506480497422835,0.18415377747750694,TazeYaprak
109.51432589027911,4.032530877546934,0.5216823821989243,0.0583107557286272,0.9902767151974288,0.0034373420070014076,23673.5,718.3401808738708,0.5765168637883816,1.0614525139664805,0.01764454561118631,0.15190603218803414,0.14264155369157153,0.047174072265553,0.012394624597867112,0.1966623343670409,0.3735097847727142,0.05806705250450698,TazeYaprak
97.51141053020301,3.2555592650662,0.557575356578214,0.05609802162635216,0.9904507573581671,0.003194915717223315,18905.0,700.4995608329773,0.4841398274048775,0.5867768595041323,0.023471727558174973,0.1697972914749247,0.08325291053908863,0.017840516333459292,0.03962629729620182,0.31151248707443296,0.340377807616668,0.014120962105523802,TazeYaprak
70.30115006848101,2.2685503772586664,0.6761914181084536,0.11379240997334432,0.9937542452986249,0.012983061500421552,18647.5,639.0853478908539,0.5737368681258823,2.0813008130081303,0.0015021829044094728,0.12047699572974872,0.1380507525273628,0.02365818397667957,0.011781161439167067,0.04146513097420155,0.5181809967631492,0.14488459568375564,TazeYaprak
75.93813764537394,2.452829771001429,0.6268723897649076,0.09918564295233383,0.9936506396674043,0.009908070842843524,16216.0,604.2152930498123,0.5581747326671087,2.585858585858586,0.03410309436269304,0.1426151051238632,0.06021985820686274,0.013196937710610982,0.009440523035371622,0.057858216528710905,0.6008077584051799,0.0817585066251816,TazeYaprak
70.3709827199859,2.2164958639705117,0.6802477033503788,0.10700938842385962,0.9918583747339204,0.011493955585210693,14097.5,611.9726504087448,0.47302918871955646,3.011904761904762,0.006153121649040855,0.12565158021197123,0.07464198692160788,0.012280393114258218,0.017039459826873504,0.2371045879285601,0.5147169524540244,0.012411917892137926,TazeYaprak
92.26155909085071,3.1763034800315677,0.556567478241486,0.0594782424899402,0.9909855669063078,0.0035785801187483302,17209.0,813.3767576217651,0.32687520772003953,0.690677966101695,0.00655188466987358,0.09420489142908417,0.11994042490024583,0.033310534907271455,0.038992967792526284,0.12949775246993112,0.4000299790320182,0.17747156479752324,TazeYaprak
49.56653528690761,1.8094564590541578,0.6841957543264652,0.10901324796553272,0.9914315033575016,0.011945737372446738,11181.5,555.4041090011597,0.45550353873872923,3.090909090909091,0.003406539617795048,0.0977764653223079,0.04119968788290282,0.0541041355506221,0.07748155780855213,0.47173695283705613,0.254294660979238,0.0,TazeYaprak
57.58920951376772,1.7061825830209314,0.7256456809495522,0.12480977629034362,0.9892040868111465,0.015663954717926566,8708.5,552.8355671167374,0.3580645024037379,0.20883534136546184,0.0026640648935314743,0.09619571461382377,0.031086282169070195,0.00907054227939792,0.014209104051755279,0.5493581136059328,0.2974161783849625,0.0,TazeYaprak
49.46178245746751,1.9746788494809193,0.6330258835478141,0.06970893313978371,0.9948126729264224,0.004894214327105495,18521.5,621.854899764061,0.60187720950754,0.8195121951219512,0.005396764418649856,0.1897772097117203,0.0702456605199602,0.025527954101523555,0.06589618757649264,0.356451894722189,0.2483978869864469,0.0383064419614918,TazeYaprak
52.43858353758095,2.241491703911899,0.59126130705454,0.06166369442752258,0.9946742930265111,0.0038285421015022717,23251.5,641.3107442855835,0.7104341138564516,1.3148148148148149,0.016595698337903603,0.2603054271020845,0.0706487319047635,0.024506273456610893,0.08633069805057297,0.37939889945178024,0.1589628930182929,0.003251378676465628,TazeYaprak
103.92064336733257,3.4448827223903016,0.5470527042382042,0.111141994982777,0.993039167674244,0.012363284442117158,29415.5,731.7371519804001,0.690360424991704,1.1019417475728155,6.0436772365103944e-05,0.09382407992479556,0.27858850815674396,0.07577472761553998,0.007082172468586005,0.016559496112873023,0.14849793677213877,0.3796126421754318,TazeYaprak
77.84312124543334,2.057720107650852,0.675680774322346,0.07775190275951538,0.9924905028913367,0.006089077990115333,16093.0,639.1269785165787,0.49507679980250047,0.5551020408163265,0.007988424862120163,0.15162395402473797,0.08589286056206251,0.004231471641384472,0.0048652200137793405,0.24541362687615767,0.4138314639814455,0.0861529780367864,TazeYaprak
86.13094880874839,3.534932192545985,0.6012745738558753,0.09055405237432791,0.9887394167723879,0.008251657623195904,17303.0,737.6955198049545,0.3995553774324097,1.588235294117647,1.7951516544090354e-07,0.0066233915441075404,0.09485689050996553,0.12340770048234839,0.04255849800851346,0.0691187241497108,0.31015942143411623,0.35327519435454663,TazeYaprak
104.25435852496285,4.2108933613272,0.5898481853866877,0.21530589683984797,0.9860663600853873,0.04636436940788103,22442.0,961.0336120128632,0.3053474288507977,0.5573122529644269,0.0,0.007204841164970625,0.0666959874769203,0.11022853477311609,0.11759296492016368,0.0630411783853204,0.2052194632732777,0.43001703000470526,TazeYaprak
57.083018986086614,2.082177332636503,0.7180015749822576,0.12292678098625778,0.9840421200557481,0.015163479245099726,9050.0,642.7005716562271,0.27532209834303845,2.4343434343434343,0.0,0.004655845492486769,0.02976110121778547,0.05539682425696203,0.051049685010645135,0.20066288966727971,0.4615854300697614,0.19688822428355365,TazeYaprak
75.0677207534359,2.535275840421969,0.6990834236171091,0.12158527334200295,0.9794553149286918,0.014861608377091039,9875.5,722.2569202184677,0.2378951203631641,3.230769230769231,0.0,0.0031365488089719292,0.023660936542549676,0.04731953938794862,0.05816279392607544,0.18745398427897264,0.3579562916469722,0.3223099054069837,TazeYaprak
102.76626001717773,4.437002099552869,0.5117212010828617,0.07310401976140515,0.9873167586058118,0.005376654631449866,23658.0,779.4356333017349,0.4893587729933101,0.8846153846153846,0.0032677743949092296,0.06090602500756637,0.12551909801987582,0.11106010885782684,0.07430940515843437,0.23412714939455712,0.27823312796755945,0.11257731119774488,TazeYaprak
68.26734532691584,2.619332873774404,0.6777300014543538,0.11620761674777388,0.988467145363725,0.01357623843266111,11377.0,626.9604572057724,0.3637117413438073,3.2435897435897436,0.0,0.010039684819224874,0.08589591231987503,0.06782130821068078,0.015317849551906765,0.12484902774567357,0.4531510895366859,0.242925127814427,TazeYaprak
64.6209200487774,3.018314680651539,0.611976547727537,0.09661060168136681,0.9922354268071921,0.009380661246617083,17511.5,685.8548994064331,0.4678091604747692,1.7464788732394365,0.0009751862170634629,0.04634040383724546,0.13669439577567985,0.07138731713377584,0.022334139954775963,0.16908341950035488,0.40318226533716034,0.15000287224241812,TazeYaprak
79.78548130526579,3.825307994521192,0.4946503293072223,0.05755582940336901,0.9925783266050467,0.003336140100176592,27761.5,847.1929936408997,0.4860579839019983,0.8625,0.016478474934870695,0.13150604846410693,0.167007984834304,0.0881086760874881,0.07019306257648605,0.1526789646520342,0.29868032417999774,0.07534646426918652,TazeYaprak
59.477746194370795,2.6507669976690575,0.6340499139164573,0.10076567226340628,0.9910441144916909,0.010209008181969008,14914.0,723.4701246023178,0.3580657645443422,1.7762237762237763,0.004310398475789992,0.07968534581789312,0.09837131874219059,0.04791511086849306,0.11816777247990552,0.3139891381352442,0.33729355755922763,0.0002673579197299847,TazeYaprak
67.45550749711518,2.540943777633511,0.6770515086367611,0.13161914326101523,0.9887023828023581,0.017386516754156735,12079.5,659.8305149078369,0.34865350021631303,2.9767441860465116,0.00036501416972983526,0.03575140261177143,0.06866742302379227,0.05693921855843026,0.051351031135031956,0.24393508013519766,0.4049676034958588,0.13802322686866192,TazeYaprak
72.61473204416401,3.067012927720003,0.6438402042438676,0.23535610241160962,0.991100551433729,0.05540299686278438,19562.5,651.2274824380875,0.5796539225045358,1.8,0.00015540029488334136,0.0308852251837764,0.06968838560804318,0.09793665268826965,0.08776454551533787,0.08337934905394767,0.2723052380127585,0.3578852036414575,TazeYaprak
89.3067404964405,4.185092091983685,0.5277211567171853,0.07042165716275717,0.9891760665140759,0.005007979821151775,22371.0,715.0681031942368,0.5497945744192625,0.9846938775510204,0.006459853228390878,0.06268071193311513,0.10688763786748397,0.10830096076500016,0.06641444785912046,0.20512246524555117,0.3312250473914982,0.11290887570831422,TazeYaprak
129.85457842236343,7.367015465806359,0.17688917643633048,0.017203770225675062,0.9641582832533053,0.0002973232353196121,15320.5,1636.9230015277863,0.07184992192742554,0.58984375,0.007927329867481778,0.02361145019527648,0.08017470415888506,0.15362752278622396,0.2793784945614611,0.3636890486169389,0.09096691655163809,0.0006245332605689005,TazeYaprak
98.64263171016523,5.205558348952428,0.24506432942622167,0.03008161094115059,0.8932027336921531,0.0009050710032656699,43660.0,1889.0235081911087,0.1537513260931342,1.0,9.131338082093925e-05,0.1741504145600897,0.5284576416007561,0.2751733518110077,0.02038239123771399,0.0016550101485881571,8.98772594974118e-05,0.0,yaprak
87.25178768382864,4.7502607470686,0.24555903063734894,0.03256002122709806,0.921490242784867,0.0010603547328176825,38008.0,2996.331286907196,0.05319921491286114,1.0,0.004073737649350402,0.1778929467292016,0.5709575578269475,0.19483277563925533,0.048851102941101905,0.0033689012714409315,2.2977941176435456e-05,0.0,yaprak
84.59133272059387,4.96855689518467,0.23594413280266419,0.028172737840361613,0.9489804752906477,0.0007938510675209588,53318.0,1892.6315922737122,0.18704734324456035,1.0,0.0027885885799589817,0.18085524615091897,0.5080347996124296,0.21135565065837847,0.08610091863880855,0.01000318340225188,0.0008616129557278513,0.0,yaprak
73.96931186322908,4.843620272251112,0.2387653862276352,0.03250995157361451,0.8980400453413817,0.0010571251860620496,37164.5,2352.19211602211,0.08440974307127196,1.0,0.0007239248238346804,0.18241816501963595,0.6051542992676122,0.1952602610865587,0.014769789751815695,0.0016629686542560388,1.059139476101323e-05,0.0,yaprak
61.3186313256939,4.093082588427621,0.2610228873055609,0.03333874936090405,0.9112229086162493,0.00111168292273398,32722.0,2310.150484919548,0.07704938244415886,1.0,0.0009037990196064643,0.12358721564778939,0.5633790857643058,0.3047773174206439,0.006326712814022205,0.0009791355507031622,4.6733781403114856e-05,0.0,yaprak
64.78977487625278,4.686869713571809,0.22672801310827212,0.03074564952843548,0.9433291972299435,0.0009456772774366453,65025.0,1020.0,0.7853981633974483,1.0,0.01009330001530323,0.3371564079728312,0.5365118886902046,0.07480857699513706,0.03937886555983573,0.002050960765162307,0.0,0.0,yaprak
97.47688893695339,4.919151257929813,0.24060388183570197,0.030195298217271002,0.9363490743920555,0.0009120419027479126,65025.0,1020.0,0.7853981633974483,1.0,0.007666314816930705,0.2155564252064726,0.5078275194347337,0.19411112467418298,0.06784338857603003,0.006673057406546181,0.0003221698835779394,0.0,yaprak
78.97651933751851,4.728042519704067,0.23432568566671308,0.03291816222098344,0.9051898550580516,0.0010839077153034745,37357.5,2051.231659054756,0.11157277823182603,1.0,0.001451021082258816,0.20971853218794598,0.5906963273581672,0.17483203364326869,0.020479568780605997,0.0026915905522324098,0.00013092639399489805,0.0,yaprak
101.93281326593782,5.308579257377101,0.23137035462890837,0.030521315121781422,0.8884315297860435,0.0009317244287780303,30861.0,1434.8326028585434,0.1883724498240066,1.0,0.0008169136795330678,0.22382734710060823,0.540137496648226,0.21555265538799823,0.01768212411915193,0.001957134172025196,2.6328890931332333e-05,0.0,yaprak
107.57954581772032,5.287049722462644,0.23821416907850146,0.033046221046597365,0.8719335589262887,0.0010922350546338515,28962.0,2513.630714893341,0.0576017216504483,1.0,0.0024018530752107975,0.15274071786894594,0.5409252091941809,0.2876354142726922,0.013661163928441163,0.002614877738200663,2.0763920802664356e-05,0.0,yaprak
73.95102774474107,4.983015561923381,0.22905929826369867,0.030262822236604293,0.9207838962677983,0.0009161102927057925,37372.5,2269.256043434143,0.09120003670956113,1.0,0.0014349843941460954,0.1689068364159494,0.5612116794951609,0.23777124741461877,0.028596466662793363,0.002041805491724822,3.698012408082588e-05,0.0,yaprak
83.70303148128595,5.115253553320981,0.22354939990476405,0.02788406174663309,0.9328458078662764,0.0007778402839703324,37780.0,2346.895651936531,0.08619543324410416,1.0,0.013350064146732088,0.2867026534730614,0.5046919280399775,0.16240282245686005,0.03051285089226348,0.002329987170645951,9.693818933808714e-06,0.0,yaprak
87.07301482603307,4.859710538014328,0.24016122009960855,0.03372001200109542,0.881694461878177,0.0011373603317376092,36021.0,2197.699694275856,0.0937192779246948,1.0,0.0009531058517142322,0.1538464714496734,0.6218189912674337,0.20081858915410528,0.0199750114889401,0.0024578618068283545,0.00012996897977921327,0.0,yaprak
79.01395779268022,4.462260038206587,0.24875485358769805,0.033304389500299396,0.9200797193584338,0.0011094352678304616,35256.0,2152.8712673187256,0.09558874909005599,1.0,0.00044226552925790395,0.1486478319352818,0.5565434474562586,0.2695442947682774,0.01499155081952369,0.007494159773272879,0.0023362702014363837,1.7951516544090362e-07,yaprak
70.21549824587052,4.50339202470219,0.246884026092048,0.03391296680278052,0.9092272997807631,0.0011503830109781633,33849.5,2325.138293504715,0.07868003500894952,1.0,0.0010460348690241393,0.1578187231921612,0.59557243795865,0.22405084348158208,0.01879374186195048,0.0026225370519261425,9.568158318000091e-05,0.0,yaprak
91.88403118692872,5.196846960904599,0.23049514031071947,0.028591514248567956,0.9248468003765788,0.0008175792518831408,34132.5,2127.2316579818726,0.09478691477572093,1.0,0.00027328192018953427,0.1584789201322643,0.48853418686736116,0.2961346196188802,0.051618448893150384,0.004714187921255056,0.0002463546453733984,0.0,yaprak
81.37477912642207,4.7357179480249325,0.24407977956429056,0.030815432621547532,0.9305872147675329,0.0009498236582423178,32211.5,2188.001210331917,0.08455235287461496,1.0,0.009364827473944048,0.2213304706644908,0.5233694637514993,0.21190550561012397,0.030765668083592754,0.0032068589154362797,5.720549938716742e-05,0.0,yaprak
82.90455700632384,5.279183381992526,0.19531620418105392,0.0318015726006176,0.9003931404090116,0.0010115111054306697,65025.0,1020.0,0.7853981633974483,1.0,0.003143250708481726,0.4377605961811643,0.48519299076978656,0.05431710037522348,0.016964183134165287,0.0025633568857191245,5.8521943933734126e-05,0.0,yaprak
72.20506289648613,4.586844633073961,0.24355353257825063,0.03138564674371771,0.9205187678267355,0.0009854060612392095,33495.5,2293.88346016407,0.0799933029166316,1.0,0.006443577186724239,0.28989820293307483,0.5389062021284668,0.15051736270657176,0.012329939299919906,0.0019035189759468475,1.1967677696060127e-06,0.0,yaprak
77.74772881824691,4.836608485918984,0.24019590506211178,0.031089044600342095,0.9109430403802904,0.0009667446783041258,25095.0,1663.2833939790726,0.11398942444976283,1.0,0.0018579221239248616,0.21835961435322077,0.5708096971690126,0.18754906747826766,0.019881304572579948,0.001535871917123879,6.5223843443527795e-06,0.0,yaprak
89.76878284494458,4.87546906538365,0.25052010139650266,0.029448920914915497,0.9378893807873169,0.0008673856922034674,30411.5,2028.3788464069366,0.09288585009924334,1.0,0.023313455020644577,0.21197013106968274,0.4895571839568204,0.2352295520255295,0.035509715360699474,0.004282812978700568,0.0001371495863968493,0.0,yaprak
75.8070821919492,4.64923923490975,0.24954307292169248,0.034027693733066945,0.8849923595453264,0.0011580240818415471,30428.5,2634.7850424051285,0.05508077336612435,1.0,0.0018113678576871877,0.2113590614465219,0.6163339053873869,0.16198036343418906,0.006335927925848174,0.0021280924479134167,5.128149892761774e-05,0.0,yaprak
84.20426180736123,4.93922164852471,0.23975433124820544,0.030766804007476493,0.9009489528283775,0.0009468584448113701,42109.5,2073.432668209076,0.12308640151547595,1.0,0.009673533720113916,0.33193311504238565,0.5171806185845356,0.13527820063551654,0.005198699352780054,0.0007358326631422581,0.0,0.0,yaprak
71.68296118079914,4.553097096068935,0.2479964134801747,0.03507506076295884,0.879060537739968,0.0012305149716819127,31210.0,1680.9991227388382,0.13879335026015707,1.0,0.0012374578737726226,0.23713648178961988,0.6098456887628564,0.1457405838309663,0.005272539924164748,0.0007653329886630468,1.914828431369614e-06,0.0,yaprak
91.86571518466977,4.852238156598541,0.2523927693643891,0.033541345850729445,0.9325016019585457,0.0011251634329553777,26168.0,1900.5382262468338,0.09103893672903882,1.0,0.000913911707259636,0.21437509574109453,0.4511794146362602,0.29149104099603196,0.031951724781660806,0.009963091681970083,0.00012572045419711182,0.0,yaprak
92.69413446751794,5.187295030757532,0.23619893348408805,0.03172759575726447,0.905414131656876,0.0010067818292027672,25228.0,1446.8326026201248,0.15144540932031098,1.0,0.0003319235409002291,0.19726652257552624,0.547526520372939,0.22444535797683274,0.02729486203656986,0.003041286094511285,9.352740119471012e-05,0.0,yaprak
117.27199984682122,5.3261080624040495,0.2374484012332357,0.03286343301184061,0.8545645632989077,0.0010802004842266708,34857.5,2831.7799907922745,0.05462445067996707,1.0,0.0034745758654971507,0.21862757065683558,0.5873295802687117,0.17421133003956255,0.013519047755800442,0.0028138403798976634,2.405503216908089e-05,0.0,yaprak
102.07012824094757,5.199475427119512,0.22666989460076692,0.03083824472461776,0.8762108673701845,0.0009512231840194924,33345.5,1350.8498474359512,0.22963228201641536,1.0,0.00419455135569213,0.23552144368453654,0.5765346751484769,0.16943048215354045,0.01146736892997637,0.0027710559321342484,8.042279411752418e-05,0.0,yaprak
123.05538319096772,5.607700779147583,0.22377964784419835,0.02641461508854316,0.925526707766047,0.000697890914295551,34045.0,2115.332164168358,0.09561060284594683,1.0,0.007052013920791937,0.22912364286499964,0.42890559177707227,0.2649567847154351,0.063750263288812,0.005867453182435891,0.00034425024892717016,0.0,yaprak
91.81685651252363,5.053896863586191,0.2352459832238452,0.03169158554421565,0.8866049567671874,0.0010045705541421519,34408.5,2052.947387576103,0.10259352818420764,1.0,0.0011165244906539342,0.16844416599621975,0.576422059301357,0.23490606569740496,0.016692636527241678,0.0022564457912036626,0.0001621021943931348,0.0,yaprak
100.71437436923857,5.534970323914007,0.2206926888270028,0.02953522977879069,0.8990907871979659,0.0008724823715074896,32279.0,2689.998245716095,0.05605649536692253,1.0,0.0030999277152219877,0.22967224121058713,0.5353790881578842,0.20754897173681564,0.022123867857656188,0.0021666882084832102,9.215111825966302e-06,0.0,yaprak
92.87884372897928,4.982096954897325,0.23441153774714907,0.02918355236660159,0.936043588850149,0.0008518988797139563,36563.5,2099.4915449619293,0.10423879095487697,1.0,0.0033838608685610146,0.19512442794470847,0.5005661309926492,0.22257570752876576,0.07376822677301856,0.004554718615955051,2.6927274816135334e-05,0.0,yaprak
98.35729025495667,5.087125084102409,0.2359008914167282,0.02848219036638703,0.9354948783576059,0.0008113517563968589,35223.0,2015.7930592298508,0.10892920042335177,1.0,0.0006481694240186195,0.18202915565612549,0.45999354942102005,0.2826980291624056,0.06425500009564336,0.009449438955255181,0.0009149289598637992,1.1728324142138972e-05,yaprak
74.52377297794425,4.651504529507995,0.2385909034493557,0.03177193901093807,0.9095993465561336,0.0010097586764576704,28964.0,2204.586996436119,0.07488829102453141,1.0,0.003612383674167283,0.22030358407978032,0.5672398585890548,0.19593344295696202,0.011797078450502825,0.0010562672334542692,5.738501455260845e-05,0.0,yaprak
89.60421703792345,4.951191128412264,0.23750490484326237,0.032554850027954677,0.8773856852812122,0.0010601602092104156,34833.0,2072.562611579895,0.10190263757339581,1.0,0.0021598666321964604,0.28499031814830905,0.5644473805138447,0.13915339451188935,0.006915761910222291,0.002326456705725613,6.821576286754274e-06,0.0,yaprak
122.588240745755,5.714150792363692,0.22941159751878293,0.03039017765291381,0.8475396142018281,0.0009237163627235073,29257.5,1291.653890132904,0.22037116378098112,1.0,0.0014420453239867707,0.2355687758498244,0.5638378068503959,0.18588400448041484,0.01161451152724943,0.0016173718022340488,3.548416436881834e-05,0.0,yaprak
41.79702102256532,3.647994626465879,0.27162213725985407,0.04048226238881631,0.9621032849191432,0.0016391060717463454,65025.0,1020.0,0.7853981633974483,1.0,0.034715420592012,0.590769270353725,0.25670608819660584,0.11183202406922275,0.005250339882038555,0.00067832797181269,4.8528933057523924e-05,0.0,yaprak
42.867353406744265,3.771981013913015,0.26682710575898844,0.03979828605346537,0.9343623432930712,0.0015841766117461419,65025.0,1020.0,0.7853981633974483,1.0,0.031832048004700214,0.5874666700167201,0.3252169739961336,0.05358413995472827,0.0018260282628648598,7.413976332709263e-05,0.0,0.0,yaprak
45.66399918300873,3.9495862468763225,0.2599503639284062,0.042192659503311476,0.9288291201011513,0.0017805624137767026,65025.0,1020.0,0.7853981633974483,1.0,0.030144246419224845,0.654662068683897,0.2703297932938583,0.03682604023048915,0.007076248468126454,0.0009588503370083392,2.752565870093826e-06,0.0,yaprak
46.316384503558524,3.8600728986448734,0.2684727525292513,0.039280424870010294,0.9498528768484862,0.001543386131042243,65025.0,1020.0,0.7853981633974483,1.0,0.07004735610053651,0.6593626134525785,0.19807529823422595,0.06848563399958911,0.00400247012867036,2.662808287373379e-05,0.0,0.0,yaprak
51.86544069588888,3.901215998654485,0.2688543647173926,0.039767217483520946,0.9437474937440475,0.0015820342152095838,65025.0,1020.0,0.7853981633974483,1.0,0.041781077665377434,0.648451502181915,0.23524445178426112,0.06366403617101193,0.0106064141965218,0.0002525179993868688,0.0,0.0,yaprak
62.26267389646123,3.966108723207553,0.27101628303744363,0.03229723478110963,0.9564872725674418,0.0010432925107300914,65025.0,1020.0,0.7853981633974483,1.0,0.014179125019126652,0.3940728879436389,0.37974691951918155,0.1925985897285664,0.018142760033673287,0.0012593587239564093,3.5903033088180046e-07,0.0,yaprak
60.616708102055284,4.30429460724253,0.2530440260489821,0.03264744339648109,0.9779950544121316,0.001066086980021187,65025.0,1020.0,0.7853981633974483,1.0,0.029265340169226193,0.4673050225942626,0.21449417413417024,0.1738624722347225,0.11387724034909093,0.0011953914866709658,3.590303308818005e-07,0.0,yaprak
64.60416159049726,4.008674428104705,0.26898653564648656,0.031981779241521416,0.9648840334534003,0.0010229760069540997,65025.0,1020.0,0.7853981633974483,1.0,0.012530876608436766,0.3690112544035424,0.3937086516729593,0.15451654172387577,0.06904596066931862,0.0011613434436256764,2.537147671564752e-05,0.0,yaprak
41.82219642084957,3.6209755262400005,0.27424465689211364,0.038170242131884864,0.9618524041620945,0.0014572134797697645,65025.0,1020.0,0.7853981633974483,1.0,0.022476196289028205,0.5200219846231342,0.330332617665703,0.11916390213293701,0.007695037243401241,0.0002983542049627796,1.1907839307579848e-05,0.0,yaprak
38.63062115532641,3.6338282151096566,0.27064857833177625,0.04111213999891129,0.9492320034152986,0.001690460666689602,65025.0,1020.0,0.7853981633974483,1.0,0.013444967830861843,0.5299397786450247,0.3804733575553324,0.06699918859134996,0.008742986940856753,0.0003964891620704726,3.231272977936238e-06,0.0,yaprak
73.56506972979494,4.359145145497088,0.2564879202143,0.032950063045685374,0.9318534872862292,0.0010858892897002317,64829.0,1155.1370829343796,0.6105372053822838,1.0,0.02215055577891841,0.4115035113160082,0.43425903320246234,0.12465999827646417,0.0064940209482131275,0.0007940554151335915,0.00013882506127429786,0.0,yaprak
43.073211445119966,3.8169254012881026,0.2714924152146512,0.04838031818083284,0.9332044574247653,0.002341475508051049,65025.0,1020.0,0.7853981633974483,1.0,0.07495129155166262,0.7753427542880327,0.11269710765148241,0.027184699563377636,0.008994008980531617,0.0008301379633872119,0.0,0.0,yaprak
43.68374089893546,3.6978014765956644,0.2795332197055426,0.045428257524571504,0.9512613780091961,0.002064483916276464,65025.0,1020.0,0.7853981633974483,1.0,0.06649361404707994,0.6995437921251582,0.16453761680428322,0.06450297037750573,0.004912432502290297,9.574142156848042e-06,0.0,0.0,yaprak
59.86513519440126,4.232906003700698,0.26565333926815865,0.0427993194161162,0.9537608270114035,0.0018322172798997318,65025.0,1020.0,0.7853981633974483,1.0,0.06479719573366338,0.6908586689059617,0.16146569345487,0.05858621036296206,0.019253779392587034,0.005009251014851416,2.920113357838674e-05,0.0,yaprak
41.657400639179556,3.766544267829805,0.27272234274464424,0.04319957893770916,0.9468928330862207,0.0018667582213498812,65025.0,1020.0,0.7853981633974483,1.0,0.047049548579125536,0.6784733790966977,0.22289560355358148,0.044060262044203595,0.006768080767452907,0.0007527669270821835,3.590303308818005e-07,0.0,yaprak
45.81801499123181,3.918107173322903,0.27025749546536726,0.04276488033906341,0.9575517600986961,0.0018293746760453494,65025.0,1020.0,0.7853981633974483,1.0,0.05710532992485159,0.6622947543265016,0.1907607733031709,0.0822417614505485,0.007028676949284614,0.000568704044116778,0.0,0.0,yaprak
39.351853779197384,3.649391084558926,0.27844627462064614,0.04069301781066807,0.9610873718084012,0.001656393720910669,65025.0,1020.0,0.7853981633974483,1.0,0.07285287894443541,0.6328677906699902,0.2118648155059573,0.07940398571525871,0.0030033485562147777,7.180606617636063e-06,0.0,0.0,yaprak
37.65122624111113,3.561152771770584,0.2808747547441322,0.04623223323994184,0.9384575092279319,0.0021380766275204644,65025.0,1020.0,0.7853981633974483,1.0,0.11303208295019516,0.7193281585083999,0.14269798129190844,0.021341780120218645,0.0032181683708590587,0.00038182875689279883,0.0,0.0,yaprak
39.09092103998656,3.6559359381008405,0.2760778378988977,0.042567023920654756,0.9537465777365846,0.0018124980019795026,65025.0,1020.0,0.7853981633974483,1.0,0.052902221679606794,0.6594809139466041,0.22435033461592602,0.05896558574592716,0.003628899069387844,0.0006688735064328018,3.1714345894559323e-06,0.0,yaprak
37.082196781287486,3.6047652345252907,0.2775110772269549,0.041564807507475016,0.9569783002783083,0.0017282293742518732,65025.0,1020.0,0.7853981633974483,1.0,0.07552639830334679,0.6485923617483976,0.21426379633852108,0.06085725672095491,0.0007442100375295011,1.5976849724240292e-05,0.0,0.0,yaprak
48.77794907607924,4.1012388564495605,0.2605775307889285,0.03970622521442349,0.9591809921791749,0.001576991577242474,65025.0,1020.0,0.7853981633974483,1.0,0.06651449764465957,0.6557983398427494,0.17767238242926314,0.08934182559729013,0.010149667777251665,0.0005225088082099858,7.778990502439066e-07,0.0,yaprak
41.85672699502762,3.583406277032961,0.2715729257283289,0.05239008418819103,0.9485327039647997,0.0027448916271456316,65025.0,1020.0,0.7853981633974483,1.0,0.14752436619156417,0.7236788282196372,0.07687826717589372,0.04928343529787209,0.002616852405020516,1.8250708486491682e-05,0.0,0.0,yaprak
46.208955780230696,4.208295847750959,0.23447525884406764,0.04800783508091951,0.8999780402499598,0.0023048428851742495,65025.0,1020.0,0.7853981633974483,1.0,0.11626329608974299,0.7799589867673455,0.08237143123838532,0.01839126886103198,0.0027972053079001425,0.00021781173406829464,0.0,0.0,yaprak
38.88616496660108,3.8113648897059864,0.2560285980720219,0.05017173039394136,0.916789331377027,0.0025174419870583067,65025.0,1020.0,0.7853981633974483,1.0,0.15160941329633731,0.7613277659685074,0.06806921865415469,0.015927542892132555,0.0024231555415097816,0.0006287219477625201,1.4181698069831263e-05,0.0,yaprak
67.70627707793074,4.5726786422290555,0.22893667821393196,0.04520720315070671,0.9288448641078347,0.0020438263140399797,65025.0,1020.0,0.7853981633974483,1.0,0.11912255380649717,0.7343558517145659,0.09077824611275975,0.04620151893758268,0.007248223996618841,0.0021860758463508284,0.00010752958409910046,0.0,yaprak
49.57530984177007,4.357440572736536,0.23155311553428187,0.047806315589123016,0.9077579365056949,0.002285546018917048,65025.0,1020.0,0.7853981633974483,1.0,0.13640651328870118,0.7627427643409009,0.07712210860895091,0.019730152803278705,0.003542073567702927,0.000452318378522593,4.069010416660449e-06,0.0,yaprak
44.15079985762834,4.2163274191417575,0.23139149242818108,0.04671742378222304,0.8809055378482809,0.002182609558292999,65024.0,1020.8284270763397,0.7841118824391357,1.0,0.12386911429592008,0.7761768415850595,0.08714210659836581,0.011141369389535692,0.0015770407283983282,9.352740119471004e-05,0.0,0.0,yaprak
54.84365916955242,4.442973736063134,0.22706629488293265,0.0470498405314048,0.9032942443062669,0.0022137706046340285,65024.0,1020.8284270763397,0.7841118824391357,1.0,0.12445176068455277,0.7717473647161938,0.0726621141619602,0.027647489659884276,0.0030971751493518904,0.00038877000995651405,5.325616574746767e-06,0.0,yaprak
41.2831447339982,3.839268190119288,0.25319692819494444,0.0507167466058724,0.9078334618128405,0.0025723707273418456,65025.0,1020.0,0.7853981633974483,1.0,0.1306222953046414,0.7771243226282566,0.07302952186722925,0.01659958783315481,0.00232322543274768,0.00030026903339414913,7.778990502439066e-07,0.0,yaprak
53.0043958002955,4.260510756079492,0.2362198295530123,0.04696461435435466,0.9299824998089902,0.0022057977278323515,65025.0,1020.0,0.7853981633974483,1.0,0.12646047554744796,0.7504178514656136,0.0745264988318409,0.043765677657715066,0.004459575578271379,0.00036788641237688865,2.0345052083302247e-06,0.0,yaprak
37.15277920451412,3.5418289690264255,0.2709485891313369,0.05334572900153682,0.9441239476311808,0.002846088539777179,65025.0,1020.0,0.7853981633974483,1.0,0.14031090829865234,0.7453735949935012,0.07491437126597025,0.037466909371113154,0.0019087249157446352,2.549115349260807e-05,0.0,0.0,yaprak
42.87456799968952,3.5671519818099684,0.27743576782860896,0.05668151024020253,0.9528588532910951,0.0032131689744056245,65025.0,1020.0,0.7853981633974483,1.0,0.133679318895323,0.7416452445224591,0.06514754949821555,0.05239281747847397,0.006802787032771479,0.0003215714996931361,1.0711071537973839e-05,0.0,yaprak
44.38686995386552,3.9848492166475404,0.24808180055732504,0.05087222197569546,0.918783577400081,0.002588144066632008,65025.0,1020.0,0.7853981633974483,1.0,0.1652510100717454,0.7442766376558804,0.06009126551001861,0.02895501828656733,0.0014195460899181762,6.522384344352773e-06,0.0,0.0,yaprak
54.6616889687878,4.426006538951456,0.23055753927392422,0.04853087807541026,0.9397899785743845,0.002355389209817574,65025.0,1020.0,0.7853981633974483,1.0,0.15046296961144323,0.6793817258338286,0.11274360207933166,0.05672415939023206,0.000641527362897305,4.601572074135126e-05,0.0,0.0,yaprak
46.56000881572164,4.22961951232709,0.23503660060450923,0.04805252262082494,0.9219679812104445,0.0023091780638052283,65025.0,1020.0,0.7853981633974483,1.0,0.14408024806580347,0.7276825549544657,0.10133666992172034,0.025255928787492086,0.00162515079273649,1.944747625609773e-05,0.0,0.0,yaprak
58.622416633629264,4.495663822207895,0.23030601707774406,0.04754817142738963,0.9079592880753956,0.002260933512942639,65025.0,1020.0,0.7853981633974483,1.0,0.1287200329348526,0.7352068732755326,0.10662775974631397,0.0263962091183727,0.0027324003331759762,0.00031558766084510605,1.1369293811257067e-06,0.0,yaprak
41.39440879109204,3.6569187031431354,0.27441950648720365,0.05176950627980754,0.9311198006163535,0.002680591812614235,65025.0,1020.0,0.7853981633974483,1.0,0.1385063620172519,0.7310660567926958,0.10295990588602547,0.024988451190985153,0.00247647154564573,2.7525658700938193e-06,0.0,0.0,yaprak
36.39174750997333,3.8168025368849277,0.2539922903721956,0.047517580003350726,0.9038870774583708,0.0022581267109399858,65024.0,1020.8284270763397,0.7841118824391357,1.0,0.12486913344420286,0.7470095765345526,0.11797616995999152,0.009905646829029,0.0002394732306981638,0.0,0.0,0.0,yaprak
45.72793168493068,3.8767796941081296,0.25458220334634013,0.04924713185462043,0.9493729171730592,0.0024255684404780645,65025.0,1020.0,0.7853981633974483,1.0,0.1268426034962832,0.7189154531430513,0.09051352108212292,0.06070203594123701,0.0030074774050199192,1.8908930759775028e-05,0.0,0.0,yaprak
53.708885614909875,4.3725860546425395,0.23392947602958078,0.046926802426742235,0.9280332565916742,0.002202245666315509,65025.0,1020.0,0.7853981633974483,1.0,0.1404036578007968,0.6883860270171788,0.1386202943089184,0.031011962890577664,0.0015162449257023424,6.181305530015062e-05,0.0,0.0,yaprak
48.749636963550685,3.8548792982267965,0.26661870765341994,0.04947379128332706,0.9500553255160968,0.002448024983876986,65025.0,1020.0,0.7853981633974483,1.0,0.14025998583005558,0.6843472349867008,0.13146721334998318,0.03409740971578742,0.008046049230226691,0.0017392027611799411,4.2904124540375653e-05,0.0,yaprak
28.240628063726643,3.213850412101192,0.2906434011648662,0.05763856905533894,0.9459901467296112,0.0033228360191017445,65025.0,1020.0,0.7853981633974483,1.0,0.17096108829247814,0.7167342840445557,0.09581855325123245,0.01590103448603578,0.0005849202473949405,1.196767769605928e-07,0.0,0.0,yaprak
35.382488646195355,3.4417267697521208,0.29099014122433997,0.04700780095473946,0.9717528182784609,0.002210300966273896,65025.0,1020.0,0.7853981633974483,1.0,0.1644604252831436,0.6149389528751339,0.13557589661820607,0.08239285338146124,0.0025949515548367255,3.6920285692345316e-05,0.0,0.0,yaprak
50.309980205932185,4.139884089052392,0.2417782832643444,0.05134967659094769,0.9230993063635462,0.002636951519318532,65024.0,1020.8284270763397,0.7841118824391357,1.0,0.12040925867398909,0.7452240588606889,0.09809109556893733,0.03437870998003331,0.0017967074525095125,0.00010016946231602346,0.0,0.0,yaprak
61.75393009900388,4.471910983756354,0.23178194498005805,0.04963086829149071,0.9045321536097874,0.0024633178925801266,65025.0,1020.0,0.7853981633974483,1.0,0.14765379662584704,0.7542975930595108,0.06516161151950842,0.027296477673058844,0.004895258884796451,0.0006758745978849972,1.938763786761746e-05,0.0,yaprak
49.789677663040365,4.038799845612383,0.25150469438080253,0.05225334160755585,0.9204537897708509,0.0027306079388183364,65025.0,1020.0,0.7853981633974483,1.0,0.16664817660437192,0.7266976150800798,0.07678803088606541,0.02711038028488509,0.0026571236404677578,9.86735026040158e-05,0.0,0.0,yaprak
57.451310043015106,4.242151005622964,0.2440574079298195,0.048082893396030224,0.9129583724867028,0.002312138914564734,65025.0,1020.0,0.7853981633974483,1.0,0.15436790316689067,0.6943820130580703,0.12735152899030808,0.021910544002723905,0.0019254198261306388,6.259095435039456e-05,0.0,0.0,yaprak
57.74411294634591,4.2923539173636325,0.24266824271038567,0.04895901023870505,0.932783352822719,0.002397118623172036,65025.0,1020.0,0.7853981633974483,1.0,0.1447429582182228,0.721466543159132,0.08505266974941066,0.04234242158771112,0.005793133903943364,0.0005734312768067221,2.884210324750497e-05,0.0,yaprak
50.23669209258635,4.549574487576962,0.21870593793100118,0.041401755544137775,0.9356571033167593,0.0017142825689753678,65024.0,1020.8284270763397,0.7841118824391357,1.0,0.052079443838002656,0.7312026079952079,0.1512387144797018,0.06138323615569676,0.00402006261488357,7.59349149815015e-05,0.0,0.0,yaprak
26.52958683258985,3.151098210423944,0.28911334193522303,0.051742395510899875,0.9551199471670071,0.002678405518336145,65025.0,1020.0,0.7853981633974483,1.0,0.05989188399960226,0.7724387374566952,0.1274477491189844,0.034790218577612345,0.0047705556832035026,0.0006608551623764414,0.0,0.0,yaprak
41.74610439794955,3.8999764363467047,0.25435931839729053,0.055808295807039984,0.882140614070102,0.003114694116526616,65024.0,1020.8284270763397,0.7841118824391357,1.0,0.19741707596094268,0.7267529057510358,0.06690733666503271,0.007986809225631194,0.0009128944546554693,2.297794117643543e-05,0.0,0.0,yaprak
47.43876674536454,3.938451241710027,0.2561050508156933,0.05420176500616951,0.9154697564598192,0.002938058189847917,65025.0,1020.0,0.7853981633974483,1.0,0.17319294050601644,0.7362074908077002,0.06561967438332512,0.02186488731231345,0.0029143688725445723,0.00019734700520803185,3.2911113664165425e-06,0.0,yaprak
64.24617999988288,4.558381556973353,0.23175915695581256,0.05123658379638274,0.9029246477698364,0.002625303422351683,65025.0,1020.0,0.7853981633974483,1.0,0.16373117484273428,0.7465491201351966,0.05451217352166927,0.029856363932246104,0.004756373985133671,0.0005903057023581669,4.487879136022554e-06,0.0,yaprak
39.80125669814666,3.8340922061227465,0.25390691169082635,0.05386460484328846,0.9029794377519504,0.002901602634157338,65025.0,1020.0,0.7853981633974483,1.0,0.16773460238562032,0.7717805750218003,0.04141702090986327,0.016398650524637962,0.0024605545343099706,0.00020859662224232838,0.0,0.0,yaprak
48.72504643646866,4.1080291834872185,0.24238737996320636,0.04785771035680157,0.9557419328762832,0.0022905008104710037,65025.0,1020.0,0.7853981633974483,1.0,0.14098821901786088,0.7073701746312736,0.06677694881653415,0.08176592658535316,0.002884928385412263,0.00020428825827174658,9.514303768367826e-06,0.0,yaprak
58.33476137483446,4.248014300389397,0.2429960202723172,0.04501478148549727,0.914496752576619,0.002026471052102324,65023.0,1021.6568541526794,0.7828287389916712,1.0,0.13982029335150234,0.6938340729347563,0.14069836186406226,0.02318294749536903,0.002329089594818749,0.00013523475796547955,0.0,0.0,yaprak
55.893815149224345,3.9586707336122267,0.26992552586235263,0.036115208863237144,0.9463092320665136,0.0013045141565690536,65007.5,1028.7279218435287,0.7719199643767423,1.0,0.016662597656224576,0.441196516447703,0.39826696059222316,0.13649286008327818,0.0067842969707310645,0.0005967682483140387,0.0,0.0,yaprak
43.43146446078618,3.6865093053153775,0.2727516860149882,0.038341662987364855,0.9571979568745907,0.0014703293942711002,65025.0,1020.0,0.7853981633974483,1.0,0.01967839259724326,0.5069585463572228,0.35397919299501746,0.11083320168870954,0.007395546109057339,0.0011162851371000109,3.8835114123715215e-05,0.0,yaprak
40.03741335964717,3.57598178885534,0.2754431334859311,0.043767584625259495,0.9409900990414839,0.0019159524375393017,65025.0,1020.0,0.7853981633974483,1.0,0.014967435948966136,0.5516834932206657,0.36331302418372863,0.06449405445762217,0.005221856809121931,0.0003201353783696086,0.0,0.0,yaprak
45.59518418396974,3.7386317462034904,0.2682979421341938,0.038576429675144075,0.9530275245157478,0.001488323374362029,65025.0,1020.0,0.7853981633974483,1.0,0.01615492876835771,0.48387594783933535,0.38710973402974025,0.10246653837300543,0.00973373113892509,0.0006567861519597808,2.3336971507317202e-06,0.0,yaprak
45.38030635753303,3.7940240983036744,0.27093153806891773,0.03550675889447573,0.9602651030979574,0.0012610468999371366,65025.0,1020.0,0.7853981633974483,1.0,0.03290656594664097,0.5127961401838071,0.31903010349598987,0.13046916886852025,0.004603307387401061,0.00019471411611489859,0.0,0.0,yaprak
43.100278889130735,3.686916991061215,0.26938229164201133,0.039368735911871094,0.9388517940580425,0.0015501475163541057,65025.0,1020.0,0.7853981633974483,1.0,0.02219052782242325,0.526784560258847,0.38584714403280584,0.06018868240646452,0.004711734547327367,0.0002773509306061939,0.0,0.0,yaprak
40.53043734681584,3.6244560235246954,0.26899698118340687,0.04122974750239364,0.9626979169379508,0.001700169512529564,65025.0,1020.0,0.7853981633974483,1.0,0.014055678423691792,0.5332314285569376,0.3369129854084932,0.0977646771597773,0.016159955192990037,0.001801674038753376,7.360121783076994e-05,0.0,yaprak
51.426638627573276,4.146275696246776,0.26016105390313,0.03360085997510533,0.9638571377507635,0.0011292023451606515,65025.0,1020.0,0.7853981633974483,1.0,0.02929543887863178,0.4755897073177486,0.3078594132960989,0.17397742177899309,0.01310765883499837,0.00017035989200341614,0.0,0.0,yaprak
39.62492716142994,3.701970816512965,0.2676288898412952,0.038889375044190044,0.9612695217932637,0.0015126139057861586,65025.0,1020.0,0.7853981633974483,1.0,0.02033852969895794,0.5153544108065053,0.3656385234752386,0.08040669759102315,0.01776673560046307,0.0004906149471499857,4.487879136022554e-06,0.0,yaprak
38.41973323061019,3.630908079224441,0.2747668470027892,0.03455803232522842,0.9673314164403889,0.0011945316910504833,65025.0,1020.0,0.7853981633974483,1.0,0.025531843596774774,0.472634468825872,0.35961064357328704,0.13220394358895268,0.009492582433349479,0.0005265179802381658,0.0,0.0,yaprak
60.29049470156059,4.105876045271198,0.26475055759544824,0.03791312846727385,0.9492223732642839,0.0014376560798842629,65025.0,1020.0,0.7853981633974483,1.0,0.015975533279693768,0.45129609949379673,0.39738536161474286,0.1113761752257798,0.0236635694316428,0.0002941655177691582,9.09543504900572e-06,0.0,yaprak
45.27354258278248,3.7667814812813276,0.2627829460995913,0.038983529814356044,0.9657075166873271,0.0015200962136791031,65025.0,1020.0,0.7853981633974483,1.0,0.014099839154390255,0.5214091581448846,0.36542466107481,0.0477057363472005,0.0502138025619638,0.0011390835631110046,7.719152113958792e-06,0.0,yaprak
54.07870176134438,3.9801824418494354,0.26519417310930604,0.033941113254869586,0.9531861317708258,0.0011522448717501501,65025.0,1020.0,0.7853981633974483,1.0,0.020016240138603043,0.452833766562575,0.3775537827429901,0.13915506998676683,0.010301956475934028,0.00013918409160517932,0.0,0.0,yaprak
38.871566840279414,3.5772881073386102,0.2705927356763031,0.04296331071051694,0.9444466426139779,0.0018462164634862443,65025.0,1020.0,0.7853981633974483,1.0,0.011421173694069586,0.5217382692815262,0.40185253666835125,0.05400600059351441,0.010404938342508628,0.0005626603668802678,1.4421051623752488e-05,0.0,yaprak
37.51751944865107,3.5828801873078353,0.2681657196974411,0.042474853355233676,0.9416197581744261,0.0018044904901487915,65025.0,1020.0,0.7853981633974483,1.0,0.0133287616804331,0.5299252977550126,0.39965299718459235,0.048914112764171694,0.007763253006268788,0.0004140218098952009,1.5557981004878136e-06,0.0,yaprak
32.34117864823727,3.499860765691142,0.27324618377617566,0.03818473598713264,0.9687932629850613,0.0014583293913011473,65025.0,1020.0,0.7853981633974483,1.0,0.01436211081109942,0.46008522183217193,0.38192126704139023,0.13723126579712516,0.006331081016381265,6.905350030626711e-05,0.0,0.0,yaprak
159.98168542448002,8.546668754205106,0.1467318946522684,0.013649874017511478,0.9620246064196722,0.00018782128147359965,27825.0,4160.134448766708,0.020203671752180356,1.0,0.0008394129136016608,0.041030046051561186,0.16433302935406915,0.2497800939219535,0.2557866115192176,0.20415667365547888,0.07765419155931777,0.00641994102327452,yaprak
124.28430505995495,7.362438710471886,0.16649431166738696,0.015055460707669832,0.9683236134551051,0.00022780603096115548,22472.0,2294.0571205615997,0.0536590692760626,0.8984375,0.0022757735906828026,0.03416688208481307,0.13943666944295513,0.24903079762140312,0.2790302949788941,0.2137605554914017,0.07798934637319592,0.004309680415128228,yaprak
137.97565186767295,7.568498849601028,0.1813128881502596,0.014794215707204668,0.970252117230295,0.00022000220892542932,14548.0,1855.1799241304398,0.05311792293883729,1.0192307692307692,0.003989006491262296,0.05946954465370828,0.11874407599935925,0.19431050618459939,0.27891863654598986,0.24362362132315762,0.09545557358671092,0.005489035213686479,yaprak
169.98334569336902,8.549112375648825,0.15031916958662103,0.014797610798273672,0.9536979404056822,0.00022010190770881252,31484.0,2729.6206080913544,0.053100081918119206,0.92578125,0.00043155445771992995,0.022525862151466864,0.15962739832236678,0.2854856004897605,0.24690180759766253,0.21314451928199704,0.06951168284686081,0.002371574850639765,yaprak
183.97299057154396,8.650802981425626,0.15974775287505671,0.01611528288966341,0.9494743452144271,0.00026108863379130674,41345.0,3010.3556693792343,0.05733201957046804,1.0,0.0011389638863340465,0.031206377814750184,0.21230498669161846,0.3414328182439644,0.21151829139826792,0.1407677743946994,0.05800374348949481,0.0036270440793449562,yaprak
135.71250479082988,7.249112796160226,0.19030699028358838,0.016689353506565672,0.9660669878209446,0.0002801603566712866,34377.5,1908.1433435678482,0.11864847523650739,0.90625,0.0008418064491408727,0.030138442095542253,0.15135414273108036,0.3190405153755855,0.23691107058021446,0.1624732522401013,0.0938283284503776,0.005412442076431693,yaprak
146.65276966792203,7.049733696174641,0.21935621579851333,0.018027082589062115,0.9633339411572945,0.00032672537602186034,32370.5,2947.7698847055435,0.04681360823171678,1.0,0.0010290407666957344,0.046554146560897125,0.20454592237254338,0.28665663775232003,0.2441551058896397,0.15049959070519314,0.06250251321222079,0.0040570427389644,yaprak
135.03738444949212,7.539197664359792,0.18500994424220762,0.014997033568340945,0.9715053235938866,0.00022678822184702866,30641.5,3262.882580280304,0.036167375483301456,0.93359375,0.00031696394378015366,0.06492207845042179,0.17905931659745963,0.219921815161276,0.24790607527152733,0.2000633688530954,0.08159855861277374,0.006211823108140033,yaprak
107.55193597414677,6.5864903522683775,0.20021793434856264,0.017201925926721533,0.9662769479230159,0.00029765659238533353,28848.5,3800.318212747574,0.025101124317439164,0.9921875,0.00028716442631696384,0.020900711358730374,0.1596770043464169,0.2913087134263325,0.284467809340099,0.1982181324675283,0.04220886230462307,0.0029316023284269,yaprak
161.0633070213455,7.703026330017446,0.18693700881608202,0.017747015330658592,0.9593968540319249,0.0003167774622126119,42310.5,2182.3098644018173,0.11164137844360185,1.0,0.00036591174555703973,0.030412621591558997,0.2646303663062752,0.2991602878939982,0.19934877881786373,0.13726274078946576,0.06513492359824617,0.003684369255509085,yaprak
211.65539012940656,9.116389624783872,0.15134920787462855,0.015533158402978201,0.9336325306306373,0.00024260525722867365,28010.5,3565.5831528902054,0.027686597501044845,0.73828125,0.003276450961238873,0.03746798646210583,0.24812227136910672,0.33842905081903013,0.21696777343716891,0.126686485140738,0.028323304419380777,0.0007266773897047738,yaprak
183.85981530542,8.8311667087179,0.15306443191536678,0.015140967514612868,0.9418122250518509,0.0002303916062797581,35728.5,2784.833810567856,0.05789300349205063,1.0,0.0007066913679523531,0.02546578201589252,0.17619969985037454,0.3261116177423027,0.26258515002640687,0.1675018908928203,0.03995445101862773,0.0014747170840970151,yaprak
206.29379380827828,9.159776783568862,0.14994657119730745,0.014674526509119936,0.9347810930566033,0.00021638128740385291,23401.5,1866.4520013332367,0.08441505508627596,1.0260416666666667,4.1647518382289415e-05,0.01735774021520024,0.134047085630923,0.29613569670987294,0.2870652142688635,0.2066642013247459,0.05601824592132994,0.0026701684091564658,yaprak
416.28024766617636,14.019999204031848,0.09023176247555138,0.010889341394358078,0.8962504036883013,0.00011936410700003991,36942.5,4039.8228253126144,0.02844536486012048,1.0,0.002786972943470012,0.041700176164152065,0.16287129720027232,0.27003060135145684,0.2652490952431615,0.18904257381634748,0.06177326277181135,0.006546020507802512,yaprak
325.36894723484716,11.86024349108487,0.11273392527021801,0.011924231956312403,0.924311192987786,0.00014294903529290655,32608.0,2990.154659152031,0.04582966921954818,0.796875,0.004849602194385983,0.0564759497548158,0.17192370844796073,0.2521320417811716,0.2631644454652847,0.18961456897183068,0.054275033988121814,0.0075646493949026745,yaprak
227.38425860847576,10.11874210039405,0.12988790888137408,0.013031729167993151,0.9437114024193175,0.00017079939856919107,18141.5,2492.407405257225,0.03669821927579204,0.67578125,0.004859296013319792,0.03642021627981575,0.1731780407472848,0.27279728908123196,0.2755546420224043,0.16458117915109685,0.06379430434273352,0.008815032360587042,yaprak
332.1573204566891,11.87501980908762,0.11357419414718481,0.012448322669608389,0.9169446317306531,0.00015577739620211892,39593.5,4083.4552966356277,0.02983857971325796,1.0,0.004971672506885798,0.041102330824845386,0.18864004097704068,0.2996175130203762,0.24452592438305215,0.1550636441097511,0.06020130830643385,0.005877565870089075,yaprak
300.8013832420337,11.339204032102828,0.12000478364084363,0.012980306436222878,0.9187596442339115,0.00016957676949579041,20377.0,3333.801407814026,0.023039373120925903,0.65625,0.00545151654410933,0.04654900045948781,0.15985245050144117,0.30114770029059446,0.2849894205724818,0.14696116727918743,0.0506731220319386,0.00437562231923352,yaprak
288.86922986352874,10.549378814638578,0.14079592627618404,0.013986882770083019,0.9200480444270646,0.00019679208134322707,38465.5,4493.244183063507,0.023942042896613017,1.0,0.004959824505966697,0.041752774107626255,0.19796280206388303,0.31974768545064575,0.24455674115311943,0.1432624368104431,0.04551762599564129,0.002240109911148543,yaprak
250.35806938738142,10.02782645196545,0.1372396967482075,0.014299510430114617,0.917753661425406,0.0002052302711193215,30965.0,2898.036908507347,0.04633115467781121,1.0,0.0003049364276956133,0.021798347024323365,0.10568757898651157,0.26756418265507587,0.33935774260824453,0.20242602778385158,0.059869085573591226,0.002992098939180484,yaprak
331.63567992179594,12.05789358359739,0.11384396619427176,0.011914134131439082,0.918336052569521,0.0001427876654481033,19286.0,3489.6247831583023,0.01990190098726985,0.81640625,0.0021228865081156342,0.04282806994861726,0.1808544682518687,0.251352048387331,0.2724360447299765,0.18033788344411816,0.06559645708859475,0.0044721416398522465,yaprak
232.06348600899926,9.049534584054447,0.16750156970694907,0.01480343511914517,0.9481183939009133,0.0002199023949081588,22668.5,1688.6875013113022,0.09989277303408933,0.75390625,0.0008847105736812483,0.03946616976862851,0.2247216318164464,0.2552412444466081,0.21248904957458387,0.1837641697301117,0.07733980066624224,0.006093223422172076,yaprak
203.78353609490313,9.076072108684386,0.1585826256136834,0.014118677568254601,0.9524504717290494,0.00020046364969862943,28590.0,2870.8165670633316,0.04359263606134538,1.0199203187250996,0.0039499918619731395,0.08629790661368573,0.22494357239931975,0.2740307976213649,0.2191360772821411,0.14551403569217986,0.043255196365589624,0.0028724221622198824,yaprak
77.3162796911063,5.182070162317477,0.2435421133643884,0.021678242189423887,0.9737278218033868,0.0004732946222851347,36649.0,2277.297672510147,0.0888039714436103,1.0,0.0002603568282777891,0.005118874942547339,0.0881221397248962,0.3309412937533247,0.30171107871813646,0.1842465868180399,0.08485155292572832,0.004748116287523394,yaprak
239.37638020833793,9.91608479911563,0.13226010047401698,0.015099364150086385,0.919221641663687,0.0002293786712793587,12384.5,2252.0154886245728,0.030686375513286863,1.3763440860215055,0.000729130763632466,0.02519381654024955,0.08234875248915133,0.20282808191605084,0.37210693359318225,0.2542094511140421,0.060315180759711845,0.0022686528224536468,yaprak
206.37266963128215,9.190759788903446,0.16280670208217296,0.015330227736643545,0.9418822803224224,0.00023628438953683396,38188.0,4157.5558034181595,0.02776262990647576,1.0,0.00040546492034251863,0.050430896235370365,0.2345724666816274,0.3077063466983663,0.23026727414563514,0.13709477443300153,0.03691119025729659,0.0026115866268342502,yaprak
284.2820515546944,11.209387345011248,0.11677748600097843,0.01159602171696388,0.9446196481881629,0.00013531330909093345,23279.5,2310.6185196638107,0.05479324389095003,0.859375,0.007643995098027552,0.07083919749529632,0.16578159706240025,0.2121450386792106,0.25138352337967157,0.1994158576513501,0.0833392573336657,0.009451533298852,yaprak
163.76176882089,8.33263888888889,0.1516926848033523,0.015777983712058796,0.9467620380075169,0.0002503601538654133,25131.5,4305.504068136215,0.01703649565685222,1.0,0.00407726811427074,0.03530614516308951,0.12676559149030903,0.2887010162947494,0.3438397575821959,0.1621954226023872,0.03782941032852682,0.001285388422945343,yaprak
178.3877220299945,8.687137248894745,0.1512132559884713,0.01588512529188636,0.9513966721685502,0.0002540218705803929,25570.5,1950.5108745098114,0.08446024411999645,0.57421875,0.0027544208601367292,0.015395220588211805,0.1192108752678941,0.34510707481182024,0.26441650390584653,0.15601190305199844,0.08267080269595226,0.014433198816614007,yaprak
228.57847325849093,9.97627951088518,0.12734028032822903,0.01307383158165904,0.9435205015661419,0.00017179779054329292,14290.5,2234.7606562376022,0.03595797735722689,0.9261083743842364,0.002413222369022053,0.028363874846770453,0.14374299890832848,0.2286916097001719,0.2605282652607851,0.24868756462508004,0.08211203182432318,0.005460432463992896,yaprak
171.13958940071944,8.64966136822378,0.14840332544825618,0.014873213762964892,0.9540256118075976,0.00022258304572807185,40661.0,3262.6988137960434,0.04799919448907529,1.0,0.00018424239813084642,0.02213565602018682,0.20484571269882962,0.3150048349413086,0.2373843922330937,0.14834720387155664,0.06459817325357788,0.007499784581790028,yaprak
161.18889782476322,7.810682835327819,0.17000289510663122,0.01762375040487618,0.9432325325550082,0.00031247094286903477,44817.5,3774.0440489053726,0.039540627910668036,1.0,0.0004472321155017687,0.020158356311243755,0.15592286352993984,0.37826376522230887,0.2787918390008001,0.11663549086609035,0.046949079924867076,0.0028313730277223963,yaprak
127.78344131464189,7.341151900711281,0.16962990545068216,0.016940485147689373,0.9526265115304955,0.00028895778745157227,31793.5,3126.539434194565,0.04087148173204786,1.003921568627451,0.0005738501455260853,0.012789677638614067,0.1257184795302923,0.31765011058085724,0.31997339585199336,0.17971747903235435,0.04260421453731242,0.0009727926815242512,yaprak
228.85621434665939,10.114658694973055,0.12079076804051664,0.014228549202045604,0.9214162204718712,0.00020363094771244886,32615.5,2797.5201038122177,0.052370590691004165,0.94140625,0.0006030512791044721,0.030745323031509467,0.21125817392354412,0.34476958630079135,0.26348649567208565,0.11859047085613025,0.02854883530556304,0.001998063629745726,yaprak
116.80207852749164,7.060434057814329,0.17586988679470084,0.018120319257781407,0.9570915685504716,0.0003305745982309886,39035.5,3137.4023522138596,0.04983439324817686,1.0,5.217907475482239e-05,0.011949008118854324,0.16263158461602029,0.35922462612920075,0.2739372103817818,0.15248036104066803,0.039238245346907015,0.00048678529028724774,yaprak
229.73388265631792,9.748861180195082,0.14446242411661817,0.014127636999081903,0.9420104774955756,0.0002009000440778753,19846.0,2893.0419611930847,0.029797057943479748,0.703125,0.0032262465533039017,0.04070673923860211,0.21826477050747947,0.2696763580916534,0.23028995289486923,0.18535676843951493,0.050861493278874556,0.0016176709941764533,yaprak
