@RELATION glcm_lbp_features

@ATTRIBUTE glcm_contrast NUMERIC
@ATTRIBUTE glcm_dissimilarity NUMERIC
@ATTRIBUTE glcm_homogeneity NUMERIC
@ATTRIBUTE glcm_energy NUMERIC
@ATTRIBUTE glcm_correlation NUMERIC
@ATTRIBUTE glcm_ASM NUMERIC
@ATTRIBUTE lbp_bin_0 NUMERIC
@ATTRIBUTE lbp_bin_1 NUMERIC
@ATTRIBUTE lbp_bin_2 NUMERIC
@ATTRIBUTE lbp_bin_3 NUMERIC
@ATTRIBUTE lbp_bin_4 NUMERIC
@ATTRIBUTE lbp_bin_5 NUMERIC
@ATTRIBUTE lbp_bin_6 NUMERIC
@ATTRIBUTE lbp_bin_7 NUMERIC
@ATTRIBUTE lbp_bin_8 NUMERIC
@ATTRIBUTE lbp_bin_9 NUMERIC
@ATTRIBUTE class {KuruYaprak,Oak,TazeYaprak,yaprak}

@DATA
273.6485202027149,10.949803425639368,0.12151826337325276,0.012309312366092128,0.9369668868876059,0.00015247288484758711,0.03402024872442199,0.04990433673459442,0.05640146683662228,0.15033083545888407,0.30602279974428803,0.15965800382621242,0.06923628826516813,0.050502232142756495,0.04900749362235131,0.07491629464270784,KuruYaprak
219.3452338684652,9.681000823571702,0.13428467661206792,0.013350647896463895,0.9455461784533605,0.0001788838150491717,0.04577885841827611,0.05638153698968355,0.06206154336722325,0.14293686224461308,0.2502192283158278,0.15120774872418843,0.07220583545903976,0.05805564413253736,0.06188217474477463,0.09927056760184297,KuruYaprak
254.5077996625679,10.207060953403966,0.14702811871130106,0.013006300725796323,0.9465962923442535,0.0001697549977599128,0.053930165816219046,0.062181122448855666,0.05367107780601548,0.11537388392834148,0.26112085459131634,0.14423230229563092,0.06740274234680445,0.06491151147946247,0.06971460459169779,0.10746173469366338,KuruYaprak
329.1040283425506,11.744517651744943,0.11866379698188594,0.013015499327765065,0.9142233728929032,0.00016998696708820342,0.059171715561106564,0.06363600127538338,0.05921157525498403,0.12553810586709674,0.24099170918319318,0.13173628826504358,0.06935586734680055,0.06889748086720962,0.07093032525496068,0.1105309311222287,KuruYaprak
375.4626959369922,12.131838179003124,0.12920744996109712,0.014253666033996866,0.9020393192810165,0.00020388573430166684,0.05903220663253541,0.059111926020290355,0.05532525510193055,0.12830835459158102,0.2432437818872703,0.1422193877548186,0.07051179846924722,0.06299824617334383,0.07059151785700217,0.10865752550998753,KuruYaprak
262.5434905401639,9.786908301926045,0.1586601584275181,0.014904205275530756,0.9364414216470451,0.00022314455026415048,0.04306839923460804,0.05054209183663396,0.04884805484684142,0.13147720025484,0.2939851721932916,0.16687260841803478,0.06413424744885177,0.05482700892846216,0.05907206632641288,0.08717315051003034,KuruYaprak
278.1745482389626,9.505878737759684,0.1839212641855319,0.01614906320042128,0.9327754432691496,0.00026191965621512304,0.04508131377542036,0.0535116390305056,0.05131935586724466,0.12420280612220144,0.2651865433668184,0.16541772959150705,0.07487643494883037,0.05984933035702358,0.06566884566313443,0.0948860012753211,KuruYaprak
226.57466643314143,9.546587459387865,0.15657375059666592,0.013579480171792679,0.9532586677717217,0.00018567153719128835,0.029356664540757818,0.04524075255093024,0.05014349489785925,0.14152184311196284,0.3361168686217791,0.16424186862212165,0.06391501913252567,0.047492825255007386,0.05263472576520122,0.06933593749986182,KuruYaprak
195.60037463319742,8.647809183812722,0.167397162516989,0.015373418871783498,0.9404494305382941,0.0002374727696741092,0.03543526785707223,0.05094068877540868,0.053132971938669615,0.1446109693874669,0.28308354591780316,0.17059948979557837,0.07694913903045889,0.053471779336628125,0.05395009566315778,0.07782605229576325,KuruYaprak
324.59330412353927,10.685597882488661,0.1531728078492953,0.015814813217552126,0.9214252116357557,0.00025116352534627597,0.053033322703975934,0.057637117346823905,0.0476124043366398,0.12314652423444844,0.2645089285709014,0.15465561224458974,0.06768176020394674,0.05994897959171726,0.06766183035700801,0.10411352040795577,KuruYaprak
401.3337932442165,12.245778077000118,0.12285006710682529,0.013812518525361108,0.881499417530451,0.00019157838650196612,0.04781170280602716,0.0595304528060038,0.058872767857025526,0.13558274872421958,0.26106106505050014,0.1496332908160283,0.07134885204067413,0.06226084183661061,0.05913185586722909,0.09476642219368868,KuruYaprak
346.81973418698107,11.999698387583452,0.12253200296187042,0.013268474158790858,0.895878012369973,0.0001766173564532167,0.05486686862233963,0.06285873724477269,0.05658083545907091,0.1338687818874883,0.23824139030564764,0.14341517857114275,0.07128906249985792,0.0649314413264012,0.06700414540802972,0.10694355867325625,KuruYaprak
424.4584655754019,12.926734395963354,0.11828019619538761,0.012675810207191716,0.8744109362067309,0.00016112690448724724,0.06475207270395258,0.064871651785585,0.0543486926019325,0.12113360969363614,0.22704081632607812,0.1389309630099272,0.06792091836721158,0.06690449617333605,0.07443797831617817,0.11965880102016968,KuruYaprak
775.3416104797298,18.849165490352867,0.07044512696554232,0.009555749460781542,0.823483892482213,9.168408116749593e-05,0.05855389030600575,0.0674426020406819,0.07071109693863459,0.1337492028058559,0.21805245535670828,0.130121970663006,0.07132892219373539,0.07146843112230654,0.06752232142843685,0.11104910714263583,KuruYaprak
615.0584021423191,16.154949042562656,0.08714163601071202,0.010390743474766762,0.8662616327072175,0.00010830834555648547,0.05903220663253541,0.0722257653059785,0.06748246173455938,0.12978316326504746,0.20842633928529888,0.1338687818874883,0.06981425382639148,0.07152822066312275,0.07156808035700023,0.1162707270405846,KuruYaprak
401.3529354099305,13.21454147551305,0.10500505867037525,0.011611575748821134,0.905191224586877,0.00013537774448972112,0.0443239795917484,0.057637117346823905,0.06000876913253347,0.14012675382625134,0.2727997448974155,0.1471221301017476,0.07214604591822356,0.05751753826519149,0.056501116071315964,0.09181680484675578,KuruYaprak
643.7160672003354,16.305862821135666,0.08802739927911347,0.010836852134678538,0.8508307426016959,0.00011781721858450682,0.06038743622436944,0.0700534119896563,0.06566884566313443,0.12956393494872137,0.2117147640301903,0.1348852040813638,0.07120934311210297,0.06730309311211076,0.07134885204067413,0.11786511479568346,KuruYaprak
562.3870237401329,15.158696249747049,0.09550676280862135,0.01148872880748891,0.8586227957001125,0.00013256370632396097,0.04946588010194223,0.06335698341824107,0.06287866709171142,0.1370974170915635,0.24453922193828814,0.14281728316298067,0.07368064413250622,0.06377551020395453,0.06148357780599991,0.1009048150508193,KuruYaprak
558.2066894084095,14.15329622267151,0.11523999750690259,0.012429967994940777,0.856512455866305,0.00015517164341140858,0.04815051020398567,0.05807557397947609,0.05976961096926863,0.12990274234667987,0.26397082270355554,0.14983258928541568,0.07136878188761286,0.06028778698967577,0.06140385841824497,0.09723772321409192,KuruYaprak
16.453555601631507,2.6547833724903684,0.35503346653610246,0.025692524335910828,0.9946068829780685,0.0006630893773435947,0.037935607792920094,0.07873854913493993,0.04668063431811894,0.12310020738202483,0.1345890001336799,0.1522962854167676,0.10431698492214704,0.08086623771362546,0.11141638933644664,0.13006010384931854,KuruYaprak
623.6205285549677,16.31747672833382,0.0876575479917616,0.01040867423814034,0.8571791865540599,0.00010873075146091793,0.05978954081620737,0.07063137755087964,0.06642617984680639,0.130121970663006,0.21715561224446517,0.12972337372423126,0.06839923469374123,0.07156808035700023,0.07152822066312275,0.114656409438547,KuruYaprak
33.77265033953389,3.4976772436116037,0.3220605465275341,0.0218511259148648,0.9924580305861916,0.0004794735484854436,0.046049616944886275,0.08206377892072168,0.05000535542634197,0.11490857457197831,0.1258093118015603,0.14107307280264036,0.10025608261591996,0.08606568094984829,0.1151812351318671,0.1385872908342131,KuruYaprak
394.11364109098065,12.580141128309926,0.12299272901631518,0.012205520300726663,0.912045695758377,0.0001494643425176427,0.06600765306109294,0.07348134566311885,0.057736766581517586,0.10963408800998559,0.21687659438732287,0.12153220663241085,0.06660554846925501,0.07348134566311885,0.08440290178554608,0.1302415497446384,KuruYaprak
146.1525806253889,6.93592523710719,0.20571480098942102,0.01951889300255584,0.951542762887591,0.0003831832208858286,0.038145727040740304,0.04500159438766541,0.04330755739787287,0.13149713010177874,0.2974728954075704,0.18221859056086132,0.07118941326516424,0.05173788265295811,0.05833466198967966,0.08109454719371594,KuruYaprak
442.0681078948015,13.130427811597299,0.10591423739040727,0.013356511633314264,0.8609345146965127,0.00017921420218377303,0.045280612244807714,0.06084582270396037,0.06714365433660088,0.14604591836705588,0.24294483418318927,0.15094866071398488,0.07700892857127509,0.06194196428559084,0.05532525510193055,0.09251434948961154,KuruYaprak
387.2476506594441,12.376962152726366,0.1313996187910996,0.013595001854248384,0.8964828471477411,0.0001855166714261421,0.053810586734586635,0.06453284438762649,0.05835459183661839,0.12771045918341895,0.23525191326483727,0.1420998086731862,0.07401945153046473,0.06841916454067996,0.0673230229590495,0.10847815688753891,KuruYaprak
506.68464652076403,14.681557007733568,0.09300438291710833,0.010352535842383201,0.9058114197939269,0.00010763853705230579,0.04639668367337692,0.0622010522957944,0.06529017857129844,0.14014668367319008,0.2519730548464366,0.14469068877522184,0.0727838010202631,0.059729751275391166,0.05992904974477852,0.09685905612225594,KuruYaprak
294.50733107370706,10.8658035480887,0.12467211033887336,0.014103103205351977,0.908514652194068,0.0001997810474606114,0.03754783163257823,0.053810586734586635,0.06168287627538727,0.15228396045888018,0.27329799107088387,0.16033561862212944,0.07457748724474933,0.05648118622437723,0.05042251275500155,0.07955994897943328,KuruYaprak
320.11689890456506,11.532217071887896,0.12131678638761312,0.014093173325784013,0.9163490958387863,0.0001995748174091957,0.04968510841826832,0.05992904974477852,0.05901227678559667,0.138492506377275,0.25153459821378443,0.1424386160711447,0.07320232780597656,0.06283880739783394,0.061742665816203475,0.1011240433671454,KuruYaprak
430.0720141111406,13.558542793011176,0.09897296904636514,0.01138929603632978,0.8990252399181471,0.0001300934725908169,0.060766103316205425,0.07204639668352988,0.06234056122436555,0.12220982142832787,0.2238520408158804,0.13083944515280047,0.07057158801006343,0.07114955357128677,0.07124920280598045,0.11497528698956677,KuruYaprak
291.0829924305845,11.196208651786723,0.11959031870594863,0.013229431002716813,0.9246117535263048,0.00017580702708099198,0.044084821428483564,0.061104910714163935,0.05855389030600575,0.1333107461732037,0.2740353954076171,0.14526865433644517,0.07268415178556943,0.060606664540695535,0.05861367984682196,0.09173708545900085,KuruYaprak
288.36134247173965,10.142930239937247,0.14027471030345148,0.015776704957613116,0.903218969162644,0.0002501372034818299,0.03693000637747742,0.05046237244887902,0.058872767857025526,0.15262276785683868,0.27812101403005796,0.16131218112212747,0.0760124362243383,0.053930165816219046,0.05121970663255098,0.08051658163249259,KuruYaprak
222.63796152378637,9.483910675325381,0.1395862781115875,0.01518453081541904,0.9206045300638115,0.0002318089548718632,0.0367506377550288,0.05281409438764984,0.055066167091726986,0.14534837372420012,0.2882852359688132,0.16424186862212165,0.07252471301005954,0.05414939413254514,0.05036272321418534,0.08045679209167639,KuruYaprak
430.2148022191202,13.61636103394851,0.09429820018190535,0.012462662980516445,0.8622107407513744,0.0001559238947464604,0.05297353316315973,0.06531010841823719,0.06806042729578272,0.14126275510175929,0.221241230866906,0.13717713647931845,0.07680963010188774,0.06734295280598823,0.063815369897832,0.10600685586713567,KuruYaprak
209.67383037492613,9.217193483323285,0.1444313880489482,0.01621371568658789,0.9257631132654942,0.0002643336772606108,0.0373086734693134,0.0513392857141834,0.05676020408151953,0.14925462372419232,0.28001434948923787,0.1642817283159991,0.07162786989781643,0.05363121811213801,0.05363121811213801,0.08215082908146892,KuruYaprak
413.87504416797094,12.805762455725741,0.11912429390978682,0.012704153056331992,0.9005398924103841,0.00016219380376242233,0.041294642857060554,0.05584343112233768,0.057238520408049186,0.14548788265277127,0.2769650829076113,0.15700733418336055,0.07152822066312275,0.05865353954069943,0.05229591836724271,0.08368542729575158,KuruYaprak
336.26896861346677,11.24589251421407,0.14119793503438918,0.01523396009520237,0.9058883500583215,0.00023298981224112157,0.05482700892846216,0.059111926020290355,0.05191725127540673,0.12396364795893662,0.2605628188770317,0.14508928571399654,0.06734295280598823,0.06337691326517982,0.06829958545904755,0.10550860969366727,KuruYaprak
280.99313558505264,10.94660818331893,0.11951413708034177,0.013803313271607547,0.9144095473540313,0.00019134418231612672,0.0392020089284933,0.05315290178560835,0.055703922193766534,0.14487005739767045,0.29577885841777785,0.15501434948948697,0.06873804209169974,0.05363121811213801,0.051658163265203165,0.08225047831616261,KuruYaprak
285.8859353409862,9.993336787173334,0.137779009148095,0.014870476402760896,0.9184395717214907,0.00022224956017185567,0.03419961734687062,0.04952566964275844,0.05532525510193055,0.15437659438744744,0.2915537308667659,0.1629862882649813,0.0741191007651584,0.05185746173459053,0.04974489795908453,0.07631138392841934,KuruYaprak
256.90476862272806,9.992417923000794,0.13681858831890287,0.015436623439551045,0.9080692282477645,0.0002394437147298089,0.03356186224483107,0.05064174107132764,0.05548469387744044,0.1546954719384672,0.2989875637749143,0.15772480867315505,0.07208625637740736,0.05305325255091467,0.049784757652962,0.07397959183658726,KuruYaprak
300.4074661675265,10.65358414481602,0.14280586173493676,0.01469757139955643,0.920096508517839,0.00021679773026745243,0.05689971301009068,0.0633171237243636,0.05418925382642261,0.12498007015281214,0.23730468749952704,0.13913026147931454,0.06855867346925112,0.06823979591823134,0.07387994260189357,0.11350047831610033,KuruYaprak
600.1132351856222,15.521227845100894,0.10329627067562863,0.010913199929205544,0.8686524271622825,0.00011946587143672806,0.05548469387744044,0.0659877232141542,0.06026785714273703,0.12633529974464616,0.24113121811176433,0.14134247448951423,0.07226562499985598,0.0640943877549743,0.06604751275497041,0.10704320790794992,KuruYaprak
369.22527179904785,13.0587795898424,0.0996126597822367,0.011256412676962676,0.9164232403021335,0.00012691425736935356,0.07912149234678109,0.08059630102024753,0.06630660076517397,0.10983338647937294,0.1653977997445683,0.10919563137733339,0.07218590561210103,0.08169244260187801,0.0922751913263467,0.143395248724204,KuruYaprak
306.61457128889265,10.765500979596164,0.13971657184417924,0.013423780069657415,0.9190352095795393,0.0001808897426345294,0.05803571428559862,0.06909677933659698,0.055803571428460215,0.12426259566301764,0.22417091836690017,0.1349848533160575,0.06997369260190135,0.06863839285700606,0.07659040178556165,0.1184430803569068,KuruYaprak
316.2913402022928,11.221691590744378,0.1297257846244404,0.012626120881284831,0.9355373802017939,0.00016000466102741954,0.04757254464276233,0.054508131377442384,0.057238520408049186,0.14548788265277127,0.263333067601516,0.1432756696425716,0.0674426020406819,0.0589724170917192,0.06441326530599407,0.09775589923449905,KuruYaprak
312.8674205488438,11.462329508975616,0.1220962446032949,0.013605323153605166,0.9042937034687997,0.00018595456768034035,0.04177295918359022,0.05662069515294838,0.06295838647946636,0.14895567602011128,0.2603236607137669,0.1492346938772536,0.07515545280597266,0.05988919005090105,0.05687978316315195,0.0882095025508446,KuruYaprak
370.7623868914214,12.961910362200085,0.10473203642742662,0.01192018161248416,0.9002899683989449,0.00014257528279209875,0.057577327806007696,0.06457270408150396,0.06016820790804335,0.1324338329078993,0.23491310586687875,0.13699776785686982,0.07212611607128483,0.06507095025497235,0.06766183035700801,0.10847815688753891,KuruYaprak
423.55838052962713,13.674294048745812,0.10469843342483742,0.01151579381165939,0.8993468766024851,0.0001330070278028808,0.05751753826519149,0.06740274234680445,0.06255978954069165,0.1263552295915849,0.23606903698932544,0.13089923469361667,0.06933593749986182,0.06772161989782421,0.07102997448965435,0.11110889668345203,KuruYaprak
294.75035190734314,11.03271342282439,0.14238702802422806,0.0148171969609385,0.9342754599338265,0.00022038030815964375,0.052096619897855356,0.06678491709170363,0.06385522959170947,0.12810905612219367,0.22656249999954847,0.13424744897932428,0.07565369897944106,0.07118941326516424,0.07108976403047056,0.11041135204059628,KuruYaprak
43.6867827683204,2.5248504744590603,0.6164538786563455,0.10151839001368815,0.9939930622362725,0.010327718154895233,0.012265624999996007,0.031419270833323104,0.01678059895832787,0.07436848958330912,0.1161328124999622,0.18237630208327396,0.04569661458331846,0.05680338541664818,0.4255110677081948,0.03864583333332075,KuruYaprak
40.78253460387307,2.229376555024711,0.6961003353571803,0.15891578479284266,0.9938534165638072,0.025297201326566127,0.011764322916662837,0.02778645833332429,0.013326822916662328,0.04640950520831823,0.08212565104163994,0.14844401041661834,0.033642578124989046,0.04150065104165316,0.5586946614581515,0.036305338541654845,KuruYaprak
36.583288457377044,1.708446947049906,0.7414157242708356,0.1684685874097963,0.9955093194983784,0.028418357985786246,0.009108072916663702,0.022135416666659462,0.010849609374996468,0.040221354166653574,0.07134114583331011,0.1500130208332845,0.029827473958323625,0.03536458333332182,0.6024739583331372,0.028665364583324002,KuruYaprak
45.23953534639234,2.396232128658288,0.6843981386315778,0.15087742159490697,0.9935620632069462,0.022800796972737458,0.01410156249999541,0.029996744791656902,0.014833984374995172,0.04741861979165123,0.08114257812497358,0.14516927083328607,0.035602213541655076,0.043362630208319215,0.5492089843748212,0.039163411458320585,KuruYaprak
30.52135075704585,1.433626378975204,0.7676001114347595,0.18519146376000933,0.9962048236855201,0.03432791333279186,0.006455078124997899,0.017014973958327795,0.008974609374997078,0.040491536458320154,0.07449869791664242,0.14305989583328677,0.02612955729165816,0.030097656249990203,0.6309342447914613,0.022343749999992727,KuruYaprak
36.33941752201914,1.6954902788021227,0.7381549195688213,0.17274861969101546,0.9961054326781442,0.029873802042236844,0.008343098958330618,0.01977213541666023,0.010602213541663215,0.04540039062498522,0.08204101562497329,0.147431640624952,0.03038085937499011,0.03416341145832221,0.5945279947914731,0.027337239583324433,KuruYaprak
33.334878116073455,1.7142284231951737,0.7225541255767548,0.16580328886567575,0.9966982013211562,0.027520678656596187,0.007805989583330793,0.020351562499993377,0.011634114583329545,0.04955078124998387,0.08996419270830405,0.15492187499994958,0.03323242187498918,0.03527669270832185,0.5700065104164811,0.02725585937499113,KuruYaprak
37.86682173310611,1.9267710627967134,0.6877670391726796,0.1543735028355923,0.996676506085426,0.023858141604177322,0.00843424479166392,0.023756510416658935,0.012412109374995959,0.0595996093749806,0.10482421874996588,0.16042968749994777,0.03764973958332108,0.04142903645831985,0.5214290364581636,0.03003580729165689,KuruYaprak
41.33969875502069,2.0029542229358324,0.687519358961962,0.14969393544174123,0.9961854457825492,0.022435214516604914,0.010058593749996726,0.025393880208325066,0.012776692708329174,0.05351562499998258,0.09782226562496815,0.16193033854161396,0.03801432291665429,0.04113932291665327,0.526106770833162,0.03324218749998918,KuruYaprak
43.18701222955414,1.955962100054769,0.7112766830225667,0.1648421357991106,0.9957955741619188,0.027199711543990233,0.00990559895833011,0.02392578124999221,0.012180989583329369,0.04846354166665089,0.0861165364583053,0.15041992187495104,0.034124348958322226,0.03733723958332118,0.5660970052081491,0.0314290364583231,KuruYaprak
45.4793345782014,1.9447385676367022,0.7153464816291595,0.16151315023250717,0.9953534449019816,0.02612434057944297,0.009886067708330115,0.024752604166658608,0.011757812499996172,0.047083333333318,0.08145833333330682,0.150566406249951,0.03416666666665554,0.03844075520832082,0.5699967447914811,0.031891276041656286,KuruYaprak
42.77699858077897,1.6996426795180393,0.7517593968071821,0.1820843725310326,0.9951670354657156,0.033190834289090046,0.008027343749997386,0.022135416666659462,0.009710286458330173,0.03898111979165398,0.06915364583331082,0.14378906249995319,0.028001302083324218,0.03510416666665524,0.617636718749799,0.02746093749999106,KuruYaprak
37.76882695402881,1.5665983866402429,0.7647384777467889,0.194079022850618,0.9955964081387771,0.03769451466743789,0.007054036458331037,0.02001302083332682,0.009078776041663711,0.036582031249988094,0.06985351562497726,0.13744140624995527,0.026676432291657982,0.031057942708323225,0.6371972656247926,0.025045572916658515,KuruYaprak
44.15140693030487,1.6654057157255049,0.7585461407890619,0.18782107713980073,0.994670648117455,0.03530486726065871,0.006822916666664446,0.020865885416659874,0.008971354166663746,0.03701822916665461,0.07430013020830915,0.1407031249999542,0.0269401041666579,0.03281575520832265,0.6258040364581297,0.025758463541658283,KuruYaprak
49.2534956271442,2.79492875422132,0.6189541988030448,0.13572129900243837,0.9946967108071478,0.018438459099147795,0.014072265624995419,0.03403971354165559,0.018977864583327154,0.060680338541646915,0.11611979166662886,0.14812174479161844,0.03969075520832041,0.04604817708331834,0.48126627604151,0.040983072916653325,KuruYaprak
39.22923299323201,1.5612203635774387,0.7634374134113822,0.18898664220346806,0.994986074114001,0.035743943195590856,0.005944010416664732,0.01907226562499379,0.008222656249997323,0.037903645833320995,0.07445312499997576,0.14812825520828513,0.0265266927083247,0.030888671874989945,0.6255794270831297,0.023281249999992423,KuruYaprak
35.633297753324435,1.7357298420393303,0.7210190282353823,0.17397820091845007,0.9960436727020656,0.03029395291230207,0.009101562499997037,0.022698567708325946,0.011106770833329718,0.044046223958318996,0.07943359374997415,0.16403645833327993,0.031904296874989614,0.035039062499988595,0.5729817708331468,0.02965169270832368,KuruYaprak
37.621687694682436,1.848905204099714,0.698171464403232,0.1662811647707622,0.9960767322797986,0.02767600868402408,0.009016927083330397,0.023180338541659122,0.01212565104166272,0.049853515624983774,0.0961718749999687,0.16660156249994576,0.03547526041665512,0.03743815104165448,0.5392968749998245,0.03083984374998996,KuruYaprak
34.06098672954778,1.713441207317952,0.7218068765143422,0.17894637024587434,0.9959569646615708,0.032043814037338685,0.009414062499996935,0.022379557291659382,0.012014973958329423,0.05155924479164988,0.08572591145830542,0.1438411458332865,0.03533528645832183,0.03904296874998729,0.5705664062498143,0.03012044270832353,KuruYaprak
36.56770788283016,1.8586844169551509,0.7061591607369995,0.1732201050201908,0.9960101290238725,0.030026772091539915,0.00999348958333008,0.02456380208332534,0.012994791666662437,0.05490234374998213,0.08810546874997131,0.1468782552082855,0.03690429687498799,0.04262369791665279,0.5514192708331538,0.031614583333323044,KuruYaprak
74.84715028711825,3.3552187038520644,0.6381973707188688,0.4085949620258448,0.9922629285592344,0.1669767565251523,0.016230468749994717,0.033089192708322564,0.02084635416665988,0.055026041666648755,0.09680989583330182,0.10924153645829777,0.03692382812498798,0.04507812499998533,0.5381412760414915,0.048613281249984173,KuruYaprak
70.02295215946752,3.200773941970575,0.6605213937809556,0.4644011266112115,0.9917216155306208,0.21569489525307645,0.014892578124995151,0.030156249999990184,0.019596354166660286,0.05272786458331617,0.09048828124997055,0.1038085937499662,0.032809244791655985,0.043785807291652414,0.568251953124815,0.04348307291665251,KuruYaprak
61.283955741852175,2.8697086893290833,0.7090151298910649,0.4630909553279626,0.9893699310145468,0.21446759338387827,0.01404622395832876,0.028896484374990594,0.015826822916661515,0.04210937499998629,0.07179036458330997,0.09343098958330293,0.029010416666657223,0.040146484374986934,0.6247591145831299,0.03998372395832032,KuruYaprak
46.49196753890539,1.971510828373392,0.7851700236443996,0.5574364659561171,0.989690274614115,0.3107440855923434,0.007109374999997686,0.018935546874993835,0.010312499999996644,0.03269205729165602,0.06336914062497938,0.08931315104163759,0.020208333333326754,0.029072265624990535,0.7049218749997705,0.0240657552083255,KuruYaprak
35.89583097361191,1.6211095184804964,0.8165577557214778,0.5145508346149383,0.9910752431350123,0.2647836692909158,0.005550130208331527,0.015299479166661686,0.008616536458330529,0.02811848958332418,0.05408203124998239,0.08639973958330521,0.017115885416661095,0.023597005208325653,0.7417122395830918,0.019508463541660317,KuruYaprak
52.760712030339135,2.609070925738035,0.6621882289671578,0.1535683405506633,0.9931450794379935,0.02361148880033989,0.014752604166661864,0.03111002604165654,0.01749674479166097,0.05309895833331605,0.08817057291663796,0.14131510416662066,0.03505208333332192,0.04387695312498572,0.5349804687498259,0.040146484374986934,KuruYaprak
54.34386000160153,1.9553752039049617,0.743428642995467,0.16978737754947426,0.9894696681566661,0.028869073578873167,0.009840494791663464,0.02574544270832495,0.010856119791663133,0.04003906249998697,0.05589518229164847,0.14827473958328508,0.03202799479165624,0.039853515624987026,0.6033105468748036,0.03415690104165555,KuruYaprak
33.59337508137026,1.339333037047336,0.7925632265619373,0.17272873598849667,0.9920813040293582,0.02988458775170148,0.004999999999998372,0.015836588541661513,0.007141927083331008,0.035468749999988454,0.051741536458316494,0.16182942708328066,0.023740234374992272,0.029567057291657043,0.6486230468747889,0.021051432291659813,KuruYaprak
49.15217320222678,1.7072115786785922,0.7628653834278566,0.16784781790388023,0.9893690288213037,0.028219220853280783,0.008095703124997364,0.022027994791659497,0.009602864583330208,0.04020182291665358,0.05296549479164943,0.15496093749994955,0.029729817708323655,0.038043619791654285,0.615374348958133,0.028997395833323895,KuruYaprak
43.191196223383415,1.6690845477108922,0.7553964088272652,0.1634490445446363,0.9911058956043333,0.02675473860319353,0.008707682291663832,0.02305013020832583,0.009570312499996885,0.041959635416653006,0.056634114583314896,0.1532812499999501,0.0320442708333229,0.040143229166653596,0.6039095052081368,0.030699869791656672,KuruYaprak
48.458734896765115,1.673844996129773,0.7624216404629431,0.1598841573600406,0.9899815115877784,0.025603199144570845,0.00786132812499744,0.02137369791665971,0.009095052083330373,0.04155924479165314,0.05694335937498146,0.1557747395832826,0.030764973958323318,0.03865885416665408,0.6093717447914683,0.028597005208324023,KuruYaprak
44.11497669028086,1.6787017685371015,0.7489594500481856,0.15353681658607998,0.9920026233726963,0.023615343991407706,0.008626302083330525,0.022216796874992766,0.009427083333330265,0.042457682291652844,0.06311848958331279,0.16068684895828103,0.032242838541656174,0.03885416666665402,0.5924218749998071,0.02994791666665692,KuruYaprak
43.318610493591365,1.8202039613628203,0.7166761322186214,0.144297332379046,0.9931644881692556,0.020859976817414267,0.010442708333329933,0.025218098958325125,0.011699218749996191,0.050621744791650186,0.07372721354164266,0.1611979166666142,0.0392154947916539,0.04386718749998572,0.548961588541488,0.03504882812498859,KuruYaprak
38.704703866597896,1.7468118916199877,0.7068893963490368,0.14040536567321749,0.9941893598914959,0.019750633441306807,0.010820312499996479,0.026666666666657984,0.011992187499996096,0.05462239583331555,0.07256835937497638,0.1662630208332792,0.0435123697916525,0.046998697916651365,0.5286914062498279,0.03786458333332101,KuruYaprak
49.964458343014954,2.780300282458547,0.571947198219757,0.07335525885837307,0.9945866843842054,0.005421686128694656,0.011741536458329512,0.03250976562498942,0.018792317708327216,0.08605143229163865,0.13095703124995736,0.21593424479159637,0.0556966145833152,0.05854492187498094,0.3462239583332206,0.04354817708331916,KuruYaprak
43.537413473510256,2.7074124042124414,0.5646275778280987,0.09416139928016556,0.9955062166861561,0.008917848785193213,0.011240234374996341,0.032822265624989314,0.018893229166660516,0.08601888020830534,0.14125325520828735,0.20598307291659962,0.055224609374982025,0.056149088541648386,0.34919270833321964,0.04322265624998593,KuruYaprak
46.30399348138341,2.077798524345459,0.7288533444260289,0.17417110103494787,0.9905039011769445,0.030378928501842643,0.012259114583329343,0.027506510416657713,0.01266927083332921,0.04346028645831919,0.05658203124998158,0.14238932291662032,0.03202473958332291,0.04184570312498638,0.5968131510414724,0.03444986979165545,KuruYaprak
43.47397993709167,2.728585202085635,0.5840860355832658,0.09216349354840794,0.9951931543841404,0.008542241218711192,0.01053710937499657,0.03012044270832353,0.01839843749999401,0.08063151041664042,0.13373046874995648,0.20591471354159963,0.049583333333317194,0.052369791666649616,0.3794173177082098,0.03929687499998721,KuruYaprak
46.44476395026638,2.5804272113461355,0.6123208280757305,0.10869411333073342,0.9943827926665567,0.011881271984681398,0.009609374999996872,0.027307942708324442,0.016191406249994728,0.07583007812497532,0.1226692708332934,0.2049316406249333,0.04582682291665175,0.05072916666665015,0.4104622395831997,0.036442057291654804,KuruYaprak
51.72506687916824,2.6332162623516906,0.633980312205252,0.11467553096919143,0.9936195444982225,0.013217266565953135,0.01026692708332999,0.02767252604165766,0.016041666666661444,0.06923828124997747,0.10540690104163235,0.19618164062493615,0.04191080729165302,0.04955078124998387,0.4482226562498541,0.03550781249998844,KuruYaprak
46.595339718248816,2.047812137044524,0.7317850254353527,0.16074301419095258,0.9914846296207769,0.025883529485310475,0.01159830729166289,0.02604166666665819,0.012636718749995886,0.04249999999998617,0.05794270833331447,0.14631835937495238,0.03354166666665575,0.04109700520831996,0.59403645833314,0.03428710937498884,KuruYaprak
36.84243909419482,1.4863935862939681,0.8015107312234862,0.17492275384605255,0.9912615818299737,0.030646975269870067,0.005104166666665005,0.016256510416661374,0.007268880208330967,0.03102213541665657,0.04920247395831732,0.14760416666661863,0.01981445312499355,0.027884114583324255,0.6766569010414464,0.01918619791666042,KuruYaprak
46.89872718621816,1.6422822691337695,0.7936935934829954,0.17054192096484228,0.9889878432829079,0.029123704676844855,0.006767578124997797,0.017584635416660943,0.00836263020833061,0.034124348958322226,0.046923828124984725,0.1411848958332874,0.023333333333325736,0.030817057291656635,0.6687141927081156,0.02218749999999278,KuruYaprak
37.99888027835376,1.563769037035898,0.7956148709740123,0.17372536466320893,0.9907530864626891,0.03022040537704236,0.006432291666664573,0.017076822916661107,0.008375651041663941,0.03330403645832249,0.04632486979165159,0.1440527343749531,0.022122395833326133,0.03056640624999005,0.6701399739581152,0.0216048177083263,KuruYaprak
36.29042008632459,1.5722382340342613,0.7861200656394483,0.1687239209384464,0.9915322417063914,0.028510116181999678,0.006308593749997946,0.017233072916661058,0.008444010416663919,0.034137369791655554,0.05168619791664984,0.1514453124999507,0.022854817708325894,0.030777994791656646,0.6556608072914533,0.021451822916659685,KuruYaprak
41.925642798595696,1.850190896159771,0.750632248382226,0.1611028334107656,0.9913470281376942,0.02599939670739551,0.008600260416663867,0.020895182291659865,0.009990234374996748,0.037548828124987776,0.06420247395831244,0.1545117187499497,0.027779947916657624,0.03564778645832173,0.6129622395831338,0.027861328124990932,KuruYaprak
50.08382733085217,2.250546445681365,0.697615765767707,0.14630780793947856,0.9917745829941359,0.02143866683257679,0.012223307291662688,0.02592773437499156,0.013649088541662224,0.04771158854165113,0.0857031249999721,0.15087565104161754,0.03541992187498847,0.04166015624998644,0.552037760416487,0.03479166666665534,KuruYaprak
32.1365725774988,1.6729565168887115,0.7389218767131281,0.14528148092440452,0.991855092065077,0.021165525501433205,0.0095214843749969,0.024033203124992176,0.01096679687499643,0.04568684895831846,0.055299479166648666,0.17245442708327718,0.032877604166655965,0.04166015624998644,0.5760481770831458,0.03145182291665643,KuruYaprak
47.23496434009929,2.216304598241499,0.6943301064884583,0.141950133002638,0.9922481802264216,0.020185266460978436,0.011936848958329447,0.02554036458332502,0.013574218749995582,0.053893229166649126,0.08313802083330626,0.15729492187494878,0.03883463541665402,0.04521809895831862,0.5359114583331589,0.03465820312498872,KuruYaprak
39.739123873578734,2.048162591918042,0.7005606687287536,0.14725215229958938,0.9939693461570156,0.02171160724509387,0.010846354166663135,0.023261718749992426,0.014241536458328697,0.056126302083315066,0.08560546874997213,0.1508593749999509,0.0371874999999879,0.04057617187498679,0.5501953124998209,0.031100260416656544,KuruYaprak
39.44519690006791,2.0128220191135213,0.7085745653135942,0.15528266968043491,0.9940208783236008,0.02413947665071068,0.010305989583329978,0.02438476562499206,0.013356119791662319,0.05534505208331532,0.08055013020830712,0.148450520833285,0.03413085937498889,0.041256510416653236,0.5625944010414835,0.029625651041657024,KuruYaprak
36.842968293115426,2.0204994594636174,0.702801187996521,0.1519488609915685,0.994692554445896,0.023113202722436173,0.010029296874996735,0.0239648437499922,0.013990885416662113,0.05624674479164836,0.08291666666663967,0.1502962239582844,0.033723958333322354,0.04010742187498694,0.5587955729164847,0.029928385416656923,KuruYaprak
36.27204566390667,1.837355011826939,0.7473526759759074,0.48599277517102907,0.9959642936821964,0.2362296982421353,0.008219401041663991,0.019749348958326904,0.013339843749995658,0.04280924479165273,0.0773307291666415,0.10128906249996703,0.028811848958323956,0.03129231770832315,0.6469694010414561,0.030188802083323505,KuruYaprak
37.027404639042786,1.8778895273704648,0.745649375283908,0.4623836185600976,0.995745080338049,0.21383522618420142,0.008753255208330485,0.020957031249993176,0.01364257812499556,0.0431282552083193,0.07374348958330933,0.0963834635416353,0.029840494791656954,0.0329622395833226,0.6487890624997888,0.03180013020832298,KuruYaprak
36.38448798922153,1.820689561818024,0.7587207577402115,0.5003653726088838,0.9955944349794561,0.25038479420666376,0.008603515624997199,0.01978515624999356,0.01370117187499554,0.04150390624998649,0.06984049479164393,0.08485026041663904,0.027737630208324305,0.030345052083323457,0.6734374999997808,0.03019531249999017,KuruYaprak
45.91961817679659,2.2345415864013365,0.7127492848879876,0.5062983109957628,0.9950734332646212,0.25635169472218544,0.011292317708329657,0.024921874999991888,0.016770833333327875,0.04848307291665088,0.07864583333330773,0.0910579427083037,0.03220052083332285,0.03552083333332177,0.622750651041464,0.03835611979165418,KuruYaprak
41.90479357341425,1.9011524425076658,0.7642604095429785,0.5957792569867627,0.9947424307224272,0.35496268483242954,0.008597005208330535,0.020488281249993332,0.013183593749995708,0.03998046874998699,0.06665690104164497,0.07603190104164191,0.025875651041658242,0.028313802083324117,0.6907779947914418,0.03009440104165687,KuruYaprak
36.598574687948506,1.6632379650593099,0.7926117668400257,0.5940153053067352,0.9948827659202366,0.3528740343845744,0.006455078124997899,0.017099609374994433,0.011468098958329601,0.03395833333332228,0.06276367187497957,0.07919921874997422,0.02065755208332661,0.026119791666658163,0.7195572916664325,0.02272135416665927,KuruYaprak
31.93448143203147,1.4698820447718668,0.7645184840896726,0.14690552188699119,0.9896129078823819,0.021650155632832558,0.007539062499997546,0.020462239583326672,0.008619791666663861,0.04004557291665363,0.05207031249998305,0.17485351562494308,0.028727213541657314,0.038333333333320854,0.6023372395831372,0.02701171874999121,KuruYaprak
40.35218350553149,1.4471043412697397,0.7768776995362174,0.18231206125249266,0.9930570291966957,0.03327776765143432,0.007379557291664264,0.021152343749993113,0.008779296874997141,0.03766276041665441,0.054755859374982174,0.13850911458328824,0.030592447916656707,0.03542643229165513,0.6385970052081255,0.02714518229165783,KuruYaprak
33.86062900535475,1.395162118969938,0.7731123684895982,0.17818710938708365,0.9941816058105825,0.031789629349799974,0.007242838541664309,0.02136067708332638,0.009156901041663687,0.03811197916665426,0.05639973958331498,0.14102213541662076,0.031129557291656534,0.035813802083321675,0.6330924479164606,0.026669921874991318,KuruYaprak
48.42042048475686,1.5184948898330002,0.7772080774416702,0.1805068618685115,0.9919492219358856,0.03262076784717512,0.006692708333331155,0.021184895833326438,0.00824544270833065,0.035940755208321636,0.05814127604164774,0.13835611979162163,0.029016927083323887,0.03452799479165543,0.6402929687497916,0.02760091145832435,KuruYaprak
27.071750289597233,1.3266753603246282,0.7655766454462732,0.16758271841638345,0.9960158483830676,0.028120015946211947,0.006132812499998004,0.020266927083326735,0.008369140624997275,0.03910156249998727,0.07056966145831037,0.14473307291661955,0.030488281249990076,0.03444661458332212,0.6198925781247983,0.02599934895832487,KuruYaprak
33.82781126266592,1.647734427920296,0.7398907341633604,0.17104572076922248,0.9960166653314175,0.029291177126828768,0.008372395833330607,0.022887369791659215,0.010914713541663113,0.04243489583331952,0.07663736979164172,0.13781575520828848,0.030533854166656726,0.03522460937498853,0.6058496093748028,0.029329427083323787,KuruYaprak
34.99556251168918,1.7742376137259819,0.7119938690837542,0.16015749145960695,0.9963728639892333,0.0256797118021797,0.009954427083330093,0.023746744791658937,0.012763671874995846,0.04855468749998419,0.08652669270830517,0.14444986979161964,0.035107421874988574,0.03675130208332137,0.5696842447914813,0.032460937499989434,KuruYaprak
28.86526389384112,1.9007864624853221,0.6996332933665521,0.45214506669520316,0.9972763864410338,0.20446570498810557,0.007929687499997418,0.02169270833332627,0.014749348958328532,0.05085937499998344,0.11307942708329652,0.10689778645829853,0.031116536458323203,0.03068033854165668,0.593095703124807,0.029899088541656935,KuruYaprak
22.32152642669243,1.5810869559447025,0.7091032203626002,0.41939332081916625,0.9978877519959999,0.17592064427886445,0.00528320312499828,0.017320963541661027,0.012158203124996042,0.051946614583316425,0.1201888020832942,0.13002929687495768,0.033307291666655824,0.027965494791657563,0.5765429687498124,0.02525716145832511,KuruYaprak
31.12345445365873,1.8641284254107038,0.7202104050381576,0.4523918601805257,0.99689286374235,0.20466921628840454,0.009098307291663705,0.02156249999999298,0.016227213541661383,0.04896484374998406,0.09181315104163677,0.0924316406249699,0.03069661458332334,0.029215494791657158,0.6301855468747949,0.0298046874999903,KuruYaprak
33.006680293149444,1.9023874029158443,0.7220745840294672,0.526954106973766,0.9964946348800088,0.27768715748469436,0.008779296874997141,0.022337239583326063,0.015042317708328437,0.048395182291650914,0.0906966145833038,0.09244791666663657,0.03066731770832335,0.030725911458323332,0.6300162760414616,0.03089192708332328,KuruYaprak
35.17562988415692,1.5852254829331152,0.7560402261320422,0.1405869538532174,0.9890596087758456,0.019821993397940156,0.008235677083330652,0.022246093749992757,0.0087044270833305,0.04171549479165309,0.051123046874983355,0.1733919270832769,0.030725911458323332,0.03868815104165407,0.5948014322914731,0.03036783854165678,KuruYaprak
27.668686018688554,1.5171023803237136,0.7762012491986298,0.5776000679736997,0.9965746852340531,0.33362832287440847,0.005185546874998312,0.01650716145832796,0.011214192708329683,0.038821614583320695,0.08250651041663981,0.07977539062497403,0.023733723958325608,0.023759765624992265,0.6964062499997733,0.02208984374999281,KuruYaprak
26.86268213962633,1.1233759192487371,0.8128362086601285,0.1914056288262465,0.9947527801286405,0.03668838012740845,0.0043457031249985855,0.014436848958328634,0.006546223958331202,0.03304361979165591,0.04743815104165122,0.1450716145832861,0.022626953124992636,0.02777343749999096,0.6799609374997787,0.01875651041666056,KuruYaprak
35.1300344682538,1.3711822576001942,0.788209763938997,0.1855750507384593,0.9939163383456362,0.03448389076756786,0.006676432291664493,0.018743489583327232,0.008642578124997186,0.034641927083322054,0.05276041666664949,0.13879557291662148,0.026123046874991496,0.03075195312498999,0.6590494791664522,0.023815104166658916,KuruYaprak
35.573455860045,1.3275158113612926,0.794108684633934,0.18407178885757078,0.9939875598490102,0.03392662963893552,0.005804036458331444,0.017158203124994414,0.008014322916664058,0.03507486979165525,0.05380859374998248,0.14127604166662067,0.023600260416658983,0.030869140624989952,0.6630436197914509,0.021350911458326384,KuruYaprak
52.043286082850486,1.472039405776086,0.7970372833620338,0.1794006759344718,0.9918966438552732,0.03222262624161913,0.005247395833331625,0.01701171874999446,0.0068457031249977715,0.03247721354165609,0.058463541666647634,0.13566731770828916,0.02277994791665925,0.029098307291657195,0.6703320312497818,0.02207682291665948,KuruYaprak
50.460251584493406,1.4960678058360415,0.7833568235118482,0.17481774707857548,0.9924911692820588,0.030602316921742284,0.00589843749999808,0.01838216145832735,0.007552083333330875,0.035947265624988296,0.06344401041664602,0.14119140624995405,0.024677734374991968,0.031816406249989646,0.6478124999997891,0.02327799479165909,KuruYaprak
34.08772314311972,1.4426472175495064,0.7580173436509141,0.16775586330241093,0.9958219525551633,0.02817380080077863,0.006158854166664662,0.01902669270832714,0.009358723958330286,0.044612630208318814,0.07532877604164215,0.14716145833328542,0.02977539062499031,0.03317057291665587,0.6114941406248009,0.023912760416658883,KuruYaprak
37.94280129577305,1.903585594734335,0.7256147575755958,0.399456702477648,0.9960367400419592,0.15962515796881283,0.008180338541664004,0.022815755208325905,0.013544921874995591,0.04733072916665126,0.08277018229163972,0.1180598958332949,0.0325781249999894,0.03619466145832155,0.6043164062498033,0.034208984374988864,KuruYaprak
41.62796528771598,2.1925488873520402,0.6682440686717666,0.3292985274380603,0.9962066401022207,0.10848334849455625,0.009814453124996805,0.02695963541665789,0.01650716145832796,0.061946614583313166,0.10454752604163263,0.13756184895828855,0.03945638020832049,0.04024088541665357,0.5254947916664956,0.037470703124987806,KuruYaprak
56.093651126561504,3.03892980177231,0.6549752144430503,0.46407120509282146,0.995617209822311,0.21538059703871365,0.015885416666661496,0.03069661458332334,0.02315429687499246,0.05436197916664897,0.08868489583330447,0.09366536458330284,0.0343131510416555,0.03960611979165377,0.5753190104164794,0.04431315104165224,KuruYaprak
37.51468356338715,1.7827317662473998,0.7331487192923314,0.1431032813553929,0.9910494826513063,0.02052687159803416,0.009547526041663559,0.023958333333325536,0.010286458333329985,0.04390624999998571,0.06638997395831173,0.1646093749999464,0.031041666666656562,0.04075520833332007,0.5780533854164785,0.03145182291665643,KuruYaprak
39.759986507095086,2.3925708403678354,0.5939617905646138,0.06967200758250722,0.9966047342985805,0.00489844211522006,0.01082356770832981,0.031689453124989685,0.017460937499994316,0.08461263020830578,0.11632161458329547,0.22411132812492704,0.055081380208315406,0.05875651041664754,0.3589485677082165,0.04219401041665293,KuruYaprak
36.001697007899416,2.217904456016787,0.6463223541593928,0.11046885950926222,0.9944641635733014,0.012238648231082241,0.011432291666662946,0.029215494791657158,0.01493164062499514,0.06254231770831298,0.10694661458329852,0.18319010416660703,0.041966145833319674,0.04933919270831727,0.4632194010415159,0.037216796874987884,KuruYaprak
54.72595450844995,3.0845632054742884,0.5546488085862796,0.10106173682366368,0.9929199519855485,0.010229470717015843,0.016113281249994754,0.0404654947916535,0.02160156249999297,0.07693033854164162,0.13845703124995493,0.165908203124946,0.050849609374983444,0.05752278645831461,0.38325195312487526,0.04889973958331741,KuruYaprak
44.525795455966154,3.113244375909863,0.5284465250444706,0.08962884917231642,0.9945089226983888,0.008049808092350159,0.013463541666662283,0.035738932291655034,0.02240559895832604,0.08660481770830514,0.16746093749994548,0.17997395833327476,0.050771484374983473,0.05484049479164881,0.3456445312498875,0.04309570312498597,KuruYaprak
44.09942238363058,2.9369254686667468,0.5467375253224253,0.07512063510789763,0.9944841267733617,0.005687333647738781,0.009365234374996952,0.028437499999990744,0.018320312499994038,0.09099609374997038,0.16566406249994609,0.22032877604159495,0.05011718749998369,0.05138346354164994,0.32898763020822624,0.03639973958332148,KuruYaprak
36.88151548961958,2.3087545517465213,0.6541106496480767,0.13619270297898395,0.9946861010757956,0.01857688168132337,0.011914062499996122,0.029117838541657188,0.01614583333332808,0.06116210937498009,0.10200846354163345,0.1637304687499467,0.03871419270832073,0.04569010416665179,0.4956608072915053,0.035856119791655,KuruYaprak
58.18591146947881,3.1520934435043,0.5809682489956679,0.07591937800851536,0.9929835656698198,0.005799577246154146,0.017441406249994323,0.03401692708332226,0.02050455729165999,0.07921223958330754,0.10053710937496728,0.21236979166659753,0.050413411458316924,0.05692382812498147,0.38119791666654257,0.04738281249998458,KuruYaprak
47.96986000114555,2.523737663090016,0.6176360284630795,0.13116891807978898,0.9947967886514519,0.017230734542879895,0.01528971354166169,0.03345052083332244,0.020253906249993407,0.07154947916664338,0.10395507812496615,0.1590397135416149,0.04610677083331832,0.05101888020831673,0.4546126302081853,0.04472330729165211,KuruYaprak
49.98334022616757,2.8887882461906735,0.591577517682165,0.11872286315414494,0.992983507701088,0.014118736129222563,0.014944661458328469,0.03813802083332092,0.020764973958326573,0.06748372395831137,0.11787760416662829,0.16065104166661437,0.04581380208331842,0.053427734374982605,0.4340104166665254,0.04688802083331807,KuruYaprak
37.5794729874901,2.2089095377836196,0.6908214947442064,0.15312142122701466,0.9928804745066726,0.0234882359657193,0.011230468749996345,0.02753255208332437,0.014550781249995263,0.05248697916664958,0.08060221354164043,0.15354817708328336,0.0362499999999882,0.04423177083331894,0.5445898437498228,0.03497721354165528,KuruYaprak
32.009507505943546,1.6318221158845687,0.7335204308702096,0.13960123120886628,0.9904473166646347,0.01955711033472227,0.00970703124999684,0.024335937499992077,0.010973307291663095,0.04725911458331795,0.05637369791664831,0.178212890624942,0.035598958333321745,0.0435319010416525,0.5607226562498174,0.0332845052083225,KuruYaprak
44.42756689907565,1.806899866698483,0.7646283163441856,0.17751603840434943,0.9882013192341433,0.031561185714418155,0.0094205729166636,0.02220703124999277,0.010341796874996633,0.039381510416653845,0.04744140624998456,0.1458398437499525,0.02923502604165715,0.0373795572916545,0.6283007812497955,0.03045247395832342,KuruYaprak
40.712969631607706,1.69245892274017,0.7825253977145646,0.1754610863306559,0.9875280332605053,0.03082895438535908,0.008369140624997275,0.019993489583326824,0.008684895833330507,0.03453124999998876,0.04605794270831834,0.1429850260416201,0.02531249999999176,0.034049479166655586,0.6531835937497874,0.02683268229165793,KuruYaprak
44.24960509414959,1.9011651778518122,0.7627202818049935,0.16908822012572802,0.9878537949985728,0.028629163146331203,0.010498046874996583,0.023072916666659157,0.0105501302083299,0.036302083333321515,0.0488281249999841,0.14033203124995433,0.028623046874990683,0.037132161458321246,0.6345052083331267,0.030156249999990184,KuruYaprak
45.75939530116721,1.916065000461408,0.760305797383083,0.1657763462136987,0.9867812528253453,0.02752281154921094,0.00976562499999682,0.022151692708326124,0.009335937499996961,0.03723632812498788,0.055940755208315124,0.14628580729161905,0.02860677083332402,0.03756835937498777,0.6232845052081304,0.02982421874999029,KuruYaprak
43.97609690845879,2.0454411334845988,0.725056453041845,0.15448380097983339,0.9910502789181517,0.02391215276712002,0.008623046874997193,0.02249348958332601,0.012093098958329397,0.044746093749985436,0.07914062499997424,0.15312499999995016,0.030856119791656623,0.038102213541654266,0.5825423177081437,0.028277994791657463,KuruYaprak
43.76575372834821,2.1084157589207635,0.7085008053713335,0.1464690463406979,0.9918342846622789,0.021496546012689254,0.010862630208329798,0.02574218749999162,0.012802734374995833,0.04822916666665097,0.07749674479164144,0.1553287760416161,0.03549804687498844,0.041249999999986575,0.5600781249998177,0.03271158854165602,KuruYaprak
43.628792312548555,2.1851237095088685,0.6963973674987822,0.1434988116920291,0.9924963189263031,0.020629823494014803,0.01128255208332966,0.027649739583324333,0.013564453124995584,0.05135091145831662,0.07855794270830777,0.15725585937494882,0.03746093749998781,0.04280924479165273,0.5451790364581559,0.03488932291665531,KuruYaprak
30.890926539273686,1.8012153181911872,0.7103579787832957,0.14104314827567918,0.9951440220433498,0.01993276791666634,0.007112630208331018,0.022216796874992766,0.01108072916666306,0.051751302083316485,0.09031575520830393,0.17022135416661124,0.035026041666655267,0.03898437499998731,0.5452669270831558,0.028024088541657544,KuruYaprak
38.744613315695744,2.2297853473631615,0.6723906234390773,0.27056663690038807,0.9954947141067925,0.07321942314343072,0.010403645833329946,0.02787434895832426,0.015507812499994951,0.05689778645831481,0.10097981770830046,0.1424772135416203,0.04023111979165357,0.043352864583319224,0.5258951822914955,0.03638020833332149,KuruYaprak
49.63162980525465,2.5221346675288023,0.6769696354524221,0.36030499786014936,0.9935275597513282,0.1298296617556855,0.013551432291662256,0.030485026041656742,0.017044270833327786,0.05623372395831503,0.0883951822916379,0.11476888020829597,0.03802734374998762,0.04263020833331946,0.5584863281248182,0.04037760416665352,KuruYaprak
40.24320640282782,1.6903994797162396,0.7702239516034615,0.1747458422797089,0.989135660066729,0.030585046930589232,0.008424479166663924,0.020419921874993353,0.0097330729166635,0.03958658854165378,0.04871093749998414,0.15094726562495087,0.029495442708323733,0.03552083333332177,0.6290494791664619,0.028111979166657516,KuruYaprak
25.616409333758554,1.277825720475776,0.768793354373788,0.1539340435231748,0.9954417668659468,0.023754704555752508,0.00506835937499835,0.015058593749995098,0.007317708333330951,0.044062499999985655,0.07310872395830953,0.1690657552082783,0.029153645833323843,0.03249348958332276,0.6038997395831367,0.020771484374993238,KuruYaprak
33.78078294804431,1.5799598552275285,0.7584348318869215,0.16092129695156113,0.9941189896871838,0.025950497607278987,0.0077539062499974755,0.020192057291660095,0.009567057291663553,0.04077473958332006,0.06464192708331229,0.15482747395828295,0.028225911458324145,0.03492187499998863,0.6132161458331337,0.025878906249991576,KuruYaprak
32.55889524460528,1.3456612843086655,0.776326127144944,0.1643999627394174,0.9944452368164067,0.027075475680970348,0.006103515624998013,0.018880208333327188,0.008186848958330668,0.03948242187498715,0.0560188802083151,0.16126627604161417,0.028216145833324147,0.03463216145832206,0.6228190104164639,0.02439453124999206,KuruYaprak
44.84408790755627,1.8253733616468544,0.7783926886316582,0.18264763930584188,0.9894760829406061,0.0334006193527632,0.009169921874997015,0.02047526041666,0.010061848958330058,0.03361979166665572,0.04896158854165073,0.1302343749999576,0.02556966145832501,0.032464192708322764,0.6629231770831175,0.026520182291658034,KuruYaprak
36.897110790830936,1.8499048267315286,0.7515956675943662,0.17605231410679117,0.9929421390506432,0.031035695672987532,0.009153645833330353,0.021868489583326215,0.010914713541663113,0.03854492187498745,0.06292317708331285,0.14107096354162074,0.02770182291665765,0.03550781249998844,0.6240657552081302,0.028248697916657472,KuruYaprak
183.64935914712362,7.167185363420529,0.2200123515728308,0.01845068106231227,0.9453073254373536,0.0003421428192706646,0.018056441326494626,0.030612244897898173,0.030173788265245985,0.13293207908136773,0.39993223851961107,0.20348373724449242,0.060188137754982086,0.03720902423461972,0.038364955357066396,0.04904735331622878,KuruYaprak
435.47106273595296,12.535465234968315,0.1288429996392604,0.014342610145334077,0.8988852504015804,0.0002064356426402696,0.06194196428559084,0.0681002869896602,0.0562420280611124,0.12492028061199593,0.22923309948933906,0.12358498086710064,0.06455277423456522,0.07077088647945079,0.08063616071412501,0.12001753826506693,KuruYaprak
148.5014798960404,7.890452367906094,0.16665565014086192,0.017718743642400715,0.9512053796850395,0.00031494830750183325,0.05986926020396231,0.07106983418353183,0.05941087372437139,0.120615433673229,0.20125159438735402,0.13496492346911876,0.07487643494883037,0.07457748724474933,0.08055644132637006,0.12280771683648994,KuruYaprak
322.49256272569414,10.755858763427593,0.15934118823864377,0.014075011436577807,0.9450259515965066,0.00019878043780971358,0.06090561224477657,0.06736288265292698,0.056660554846825854,0.11826371173445818,0.21095742984651833,0.13434709821401797,0.07334183673454771,0.07326211734679276,0.08298788265289583,0.12191087372424683,KuruYaprak
339.54195559127544,11.066222070947202,0.16919176212714876,0.014309560262798893,0.9474283420772267,0.00020563829997640516,0.06188217474477463,0.06383529974477073,0.04751275510194612,0.11031170280590259,0.22405133928526774,0.15427694515275375,0.07102997448965435,0.0675422512753756,0.07920121173453602,0.12035634566302543,KuruYaprak
204.31871071566144,8.262899064717562,0.20881809671791696,0.021348744191299594,0.9532374553232392,0.00045859479677416167,0.05203683035703915,0.06026785714273703,0.04601801658154094,0.11425781249977228,0.23987563775462398,0.1583625637751946,0.07196667729577494,0.06758211096925307,0.08342633928554802,0.10620615433652303,KuruYaprak
213.1528729688231,8.524350528975205,0.20192447016581141,0.02051028347675765,0.9514090987736517,0.000423185299536363,0.05556441326519538,0.06068638392845048,0.04852917729582165,0.11308195153038687,0.2273596938770979,0.15750558035682896,0.07114955357128677,0.07118941326516424,0.08382493622432273,0.11110889668345203,KuruYaprak
278.5922313896782,9.710203791156331,0.16584229613213275,0.015962140470306852,0.9185041802214424,0.00025568419182973683,0.0595304528060038,0.06792091836721158,0.054448341836626175,0.11886160714262026,0.21719547193834263,0.13396843112218199,0.07075095663251206,0.07395966198964851,0.08382493622432273,0.11953922193853726,KuruYaprak
333.7794677733854,10.076955873155372,0.18333090557937054,0.018631416963121785,0.8744440892617118,0.00034874696231587844,0.034677933673400274,0.0467753507652129,0.04585857780603105,0.13518415178544485,0.3060427295912268,0.17213408800986102,0.07101004464271563,0.05355149872438307,0.056959502550906885,0.07780612244882452,KuruYaprak
329.7625541596239,10.547506413332922,0.16509838796054138,0.014255011424425456,0.9354044552304512,0.000204288912627384,0.036890146683599946,0.04777184311214969,0.042012117346855046,0.13372927295891715,0.32465720663200603,0.16858657525476606,0.06544961734680833,0.05004384566316557,0.05339205994887318,0.07746731505086601,KuruYaprak
260.5545340791814,10.180257509093149,0.15703168462918704,0.016246168093683233,0.8960609978489897,0.00026497001977033295,0.05578364158152148,0.0625398596937529,0.05149872448969328,0.12723214285688927,0.23543128188728588,0.14602598852011714,0.06969467474475906,0.0675422512753756,0.07302295918352794,0.11122847576508445,KuruYaprak
45.42847134503651,2.546099298980419,0.6852896227114438,0.2307410436475157,0.9930113072876594,0.05324401082930284,0.011171874999996364,0.021087239583326468,0.01718098958332774,0.06282877604164622,0.08676432291663842,0.13856119791662155,0.031002604166656574,0.03730794270832119,0.5635351562498165,0.030559895833323386,KuruYaprak
49.67914503993202,3.7036700865127345,0.4536722941630481,0.04290249163154317,0.9940866057817057,0.0018460508328997428,0.008473307291663908,0.022194010416659443,0.022281901041659412,0.11500976562496257,0.23811197916658916,0.20252929687493407,0.05251627604164957,0.04137695312498653,0.26647786458324657,0.031028645833323234,KuruYaprak
44.448218487984064,2.773449076115951,0.6282588491205597,0.08957445438789538,0.9936654813794336,0.008035533273342537,0.014267578124995356,0.025494791666658367,0.02106119791665981,0.07801106770830794,0.09330729166663629,0.1708105468749444,0.040628255208320106,0.04701822916665136,0.47141927083317986,0.03798177083332097,KuruYaprak
30.017336236839938,1.7081888811703156,0.7609068862252659,0.14791043702033488,0.9932765610593661,0.02189422400701403,0.008281249999997305,0.016914062499994494,0.010716145833329844,0.05154622395831655,0.053909505208315785,0.15703776041661555,0.026448567708324724,0.03683919270832134,0.6157031249997996,0.02260416666665931,KuruYaprak
30.93332326102267,1.818042022151912,0.740786545190007,0.11529356555857083,0.9927943098887948,0.013313119973671295,0.008756510416663817,0.017460937499994316,0.011705729166662857,0.0540624999999824,0.05965820312498058,0.1743717447916099,0.028626302083324014,0.037874348958321,0.5834602864581434,0.02402343749999218,KuruYaprak
40.054188085797435,2.901495428123156,0.5414819642276024,0.048976439315558506,0.9939645991005105,0.002407308920292516,0.01345703124999562,0.029283854166657134,0.023658854166658964,0.10331054687496637,0.14030598958328766,0.19579427083326958,0.05196940104164975,0.0570377604166481,0.34257486979155516,0.04260742187498613,KuruYaprak
240.50022758901474,7.079326143276908,0.45292053644153807,0.06580283673824525,0.9786023113650073,0.004355612443847972,0.04848958333331755,0.0639160156249792,0.031106770833323208,0.07613281249997522,0.059215494791647394,0.16031249999994782,0.06343098958331268,0.08782877604163808,0.2962337239582369,0.11333333333329644,KuruYaprak
176.01754036733917,5.679956890155827,0.4801771078398949,0.06788721538994096,0.9840089729377035,0.004638135671722304,0.04212565104165295,0.060120442708313765,0.02960611979165703,0.08168294270830674,0.06098632812498015,0.17123697916661093,0.06564778645831196,0.08652343749997184,0.2975748697915698,0.10449544270829932,KuruYaprak
107.85056819875257,3.8349604557288677,0.5145623386766305,0.062202122623401405,0.9876257462770827,0.003897747154088054,0.030540364583323393,0.060341796874980355,0.025065104166658508,0.09348307291663624,0.07122070312497682,0.1871419270832724,0.07635416666664181,0.09333984374996962,0.26798828124991275,0.09452473958330257,KuruYaprak
81.3681802838172,3.1746740110084297,0.522597654217116,0.05941287976704107,0.9895926762913705,0.00355874263839816,0.026738281249991298,0.059912109374980496,0.024290364583325428,0.09645833333330193,0.07705729166664159,0.19257161458327066,0.08113932291664025,0.09495768229163576,0.25371419270825074,0.09316080729163634,KuruYaprak
134.55101979234396,4.7184299611456595,0.4695407613058976,0.050325691115148334,0.9863559129998973,0.0025542872572462006,0.03719401041665456,0.06547200520831202,0.029231770833323817,0.09225585937496997,0.07370442708330933,0.1786979166666085,0.07782226562497467,0.09536458333330229,0.24391276041658727,0.10634440104163205,KuruYaprak
144.4707115552416,5.134814693318961,0.48061602098936956,0.06366472222652915,0.9868062167147635,0.0040758410841823895,0.037431640624987814,0.05847656249998096,0.03173502604165634,0.08319661458330625,0.07155273437497671,0.17116210937494428,0.06468749999997894,0.08370117187497275,0.303151041666568,0.09490559895830245,KuruYaprak
125.2929941770318,6.575745561681367,0.2020368428573791,0.017411034561827618,0.961154716121959,0.0003047530543601025,0.04106648763018744,0.07042439778642251,0.054768880208305476,0.12921651204420512,0.21400451660145364,0.15593973795564986,0.08781433105464284,0.0730692545572545,0.07017008463538098,0.103525797525989,Oak
108.84005616942463,6.51408456043071,0.19934478100221104,0.022663824591576582,0.9391915776716573,0.0005163545255095689,0.03563944498696104,0.06464640299475878,0.053029378255181364,0.13441975911451495,0.23767598470039994,0.16521708170564514,0.08680725097651834,0.06621297200517466,0.06313069661455123,0.09322102864578592,Oak
906.69791570866,19.762602526098593,0.08648309516637535,0.010216657528585056,0.8426775463348821,0.00010480886996298436,0.074076334635379,0.08644612630203936,0.06624857584632048,0.10740152994786203,0.1541595458983591,0.11870829264316879,0.08041890462235493,0.08594258626297711,0.08196004231766664,0.14463806152336392,Oak
589.2003987861164,13.675028238263241,0.20489921346292905,0.021713826855098053,0.753493568426121,0.0004742651249968819,0.05035909016924522,0.05978902180986542,0.04807027180987138,0.11512756347650394,0.21935017903634677,0.17698160807282665,0.08613586425776869,0.06787109374996547,0.07370503743485834,0.10261027018223948,Oak
240.57603960706422,9.6899503412621,0.15025099899654695,0.013820827650206174,0.9566460549015205,0.0001920295428654528,0.029876708984359804,0.049804687499974666,0.056559244791637896,0.15237935384106832,0.28581746419256293,0.17511494954418177,0.08039347330725077,0.05355326334632693,0.044743855794248076,0.07175699869788017,Oak
469.57817527779866,10.967694403731771,0.2374493487419585,0.024290970173579535,0.8972263474815239,0.0005934794939042566,0.041381835937478954,0.0639038085937175,0.05294291178382724,0.12756856282545595,0.188781738281154,0.16475931803377036,0.08317057291662436,0.0766092936197527,0.09776306152338778,0.10311889648432256,Oak
630.3978696585672,16.625701685319644,0.10166433294292156,0.01211110281337644,0.8459729417582476,0.00014723635653310498,0.06104532877601062,0.07823689778641854,0.07185872395829679,0.1268513997395188,0.1705067952473091,0.1264699300129565,0.08652242024735182,0.0796203613280845,0.07328796386715022,0.12560017903639445,Oak
322.73944683573865,8.536218296377317,0.30554382294057686,0.024244589359969957,0.9213608055251855,0.0005921097777932737,0.028259277343735626,0.039082845052063456,0.03169250488279638,0.12188720703118801,0.2599792480467428,0.2303365071613412,0.0831095377603744,0.0612080891926772,0.07870483398433496,0.0657399495442374,Oak
828.7201860910656,16.397725321199687,0.19557807224348173,0.017816436750013674,0.7451665199320064,0.0003191071642773969,0.05868530273434515,0.06905619303381905,0.051015218098932384,0.10999552408848572,0.18534851074209321,0.15816752115877372,0.08465576171870694,0.07803344726558531,0.08666992187495591,0.11837259928379396,Oak
116.25996599080665,6.705325196698183,0.20772918020960532,0.017932909485871628,0.9609848629954841,0.0003236573781836416,0.023544311523425523,0.0488840738932043,0.050064086914037034,0.1477101643879457,0.2807108561196489,0.19314575195302677,0.08590189615881047,0.05350748697913945,0.048904418945287624,0.0676269531249656,Oak
105.77557969647222,5.418879360239599,0.2919308494368458,0.03231607453145323,0.9765382180101891,0.0010477527197330758,0.01486206054686744,0.042378743489561777,0.035074869791648824,0.1371053059895136,0.29106140136703945,0.20475769042958336,0.07946777343745957,0.05406697591143083,0.08229573567704147,0.058929443359345024,Oak
210.28599134842233,9.1689361371485,0.1471574726271694,0.014425845899317153,0.9521646404734694,0.00020910016637112243,0.04337056477862378,0.06883748372392332,0.0616709391275728,0.14098103841138662,0.2203013102212421,0.14675394694002952,0.08538818359370656,0.07001749674475605,0.06270345052080144,0.09997558593744915,Oak
540.3174186365588,12.23792350274973,0.20099602387970156,0.01575223929773481,0.8730356970521629,0.0002495302418884194,0.041081746419249936,0.05440266927080566,0.046717325846330406,0.12236022949212526,0.25204976399726764,0.1874949137368838,0.08205668131506243,0.061014811197885634,0.0629781087239263,0.0898437499999543,Oak
252.26244038940797,9.625239371654414,0.15248804859890236,0.017847319485068507,0.92395837453748,0.00031989775543094575,0.05171712239580703,0.07748921712235642,0.06343078613278023,0.12713114420566451,0.1906178792316739,0.13481140136711894,0.08591206868485214,0.07952880859370955,0.07271830240881717,0.1166432698567115,Oak
70.85770822033335,5.318429681665437,0.2120693134652165,0.02666675080812842,0.958927475511618,0.00071448565211051,0.03470357259112818,0.0631103515624679,0.05777486165361645,0.14232381184888596,0.22173055013009554,0.16663106282543608,0.08974711100255851,0.06770324707027807,0.06360371907548848,0.0926717122395362,Oak
109.1870935858791,6.657054674134291,0.1941358374501091,0.016000116906097615,0.9700811747719713,0.0002578495937773282,0.02391052246092534,0.04767862955726741,0.04838053385414206,0.1476593017577374,0.3020070393878672,0.18694051106761325,0.0796712239582928,0.05166625976559872,0.046925862630184466,0.06516011555986269,Oak
75.88276423813204,4.837523556862046,0.3146889565157354,0.024693137580448023,0.9805708124903656,0.0006136933537593425,0.017023722330720508,0.03819274902341807,0.034194946289045104,0.1357472737629518,0.27781677246079617,0.22586059570301012,0.0870157877603724,0.05701192220049184,0.07022603352861012,0.05691019694007522,Oak
442.08755870064704,12.41588340279694,0.17420764133285466,0.015591538064383188,0.8550166883314451,0.00024444670472799113,0.042282104492165996,0.05522155761715941,0.05088806152341162,0.1276601155598309,0.2510223388670598,0.18330383300771927,0.0814565022786044,0.0604146321614276,0.058720906575490964,0.08902994791662139,Oak
802.9913226418001,17.365898333514256,0.13186328372181938,0.012689399238285938,0.7886996026190718,0.00016172174973724202,0.06584676106767484,0.07396952311194155,0.05904642740882413,0.11545817057285794,0.1821339925129282,0.1394856770832624,0.08403523763016559,0.07690938313798172,0.076660156249961,0.126454671223894,Oak
100.2667081181703,5.308482745122307,0.28241088034463663,0.02240582107254083,0.9645175749250483,0.0005053723804248573,0.02051798502603123,0.04458109537758149,0.04094950358070834,0.13841756184888793,0.266672770182156,0.21927897135405514,0.09242757161453632,0.05566406249997169,0.05767822265622066,0.06381225585934254,Oak
151.47012843427794,6.5894234876069895,0.2377260877128966,0.020727555223319233,0.9433717552667187,0.00043219416310860714,0.029627482096339097,0.056045532226533995,0.04791768391924646,0.13305664062493233,0.2528381347654964,0.18675740559886334,0.08863830566401741,0.06266784667965562,0.061986287434864305,0.0804646809895424,Oak
103.56403662655794,6.227156027103925,0.20720545126499545,0.018426194262684083,0.9690912161640676,0.0003415039381376745,0.0289001464843603,0.05645751953122129,0.05380757649736846,0.1456247965494051,0.25165303548164286,0.17769877115876379,0.08825174967443428,0.06085713704423988,0.055379231770805164,0.08137003580725027,Oak
179.114288312461,8.121124278233662,0.18703687526111626,0.01707858125546003,0.9395826828083453,0.00029330935973422934,0.03304036458331653,0.06038411458330262,0.0581309000650746,0.14425659179680161,0.2390391031899826,0.16879272460928915,0.0883229573567259,0.06384277343746753,0.05798848470049134,0.08620198567703949,Oak
644.4903494640378,14.405826194040559,0.1614040631419177,0.01563717403462087,0.8145224176621573,0.0002456306574619406,0.054306030273409876,0.06483459472652953,0.05241902669268167,0.12222798665358367,0.21888224283843033,0.15900675455721078,0.08244323730464556,0.06837972005204855,0.06857808430986095,0.10892232259109043,Oak
1609.6122101447227,25.53062277948755,0.10119111349759172,0.009336574795551326,0.7160503511739766,8.74874864215818e-05,0.07953898111975122,0.08338419596349926,0.05846659342444943,0.10350036621088486,0.1640065511066874,0.11904907226556445,0.07858276367183503,0.08408101399735307,0.08485921223954017,0.14453124999992648,Oak
176.47953973501134,6.33754928992856,0.32203297376531914,0.030535277327870543,0.934966066157569,0.0009385880583274427,0.025304158528632964,0.04599507649737244,0.037297566731751865,0.12568664550774858,0.23686726888008786,0.21335856119780813,0.08951822916662114,0.0678405761718405,0.08649190266922684,0.07164001464840106,Oak
396.30740768876785,10.67347713971705,0.21255473527361055,0.01686616298437995,0.9130619809898548,0.00028634896160887143,0.031061808268213368,0.05186462402341112,0.04595947265622662,0.1299947102863922,0.2711334228514246,0.19409179687490127,0.08189900716141668,0.05956013997392804,0.0593719482421573,0.07506306966142015,Oak
302.16161193836746,11.198635532589655,0.13837107029747364,0.015625633325860092,0.9072015306655603,0.0002451728754301903,0.04320780436195719,0.0661061604817372,0.06872049967444421,0.14126078287753233,0.20511881510406232,0.1549072265624212,0.0897776285806835,0.06740824381506988,0.06343587239580106,0.10005696614578244,Oak
207.99002093351743,8.627379865776355,0.15796422668090707,0.013792884903076758,0.9653904859215114,0.00019122138772541982,0.03387451171873277,0.05575561523434664,0.055374145507784335,0.14830017089836206,0.2651468912759068,0.16579691569001984,0.0819193522135,0.058110555012991276,0.05323282877601459,0.08248901367183305,Oak
98.22820902370793,5.670829390751415,0.23415989345870816,0.019648491545238338,0.9740671579408615,0.0003888174542685126,0.03633626302081485,0.06696065266923677,0.05253601074216078,0.12904357910149686,0.21375020345041212,0.16872151692699752,0.0910339355468287,0.0722401936848591,0.07046000162756832,0.09891764322911635,Oak
111.49715338964828,6.213763878508178,0.2077648624441146,0.018228128486170985,0.9658445445844187,0.00033398751128768434,0.033284505208316405,0.05923461914059487,0.0496775309244539,0.13331095377597385,0.2565612792967445,0.17705790201813912,0.08206176757808326,0.06256103515621818,0.05930074055986567,0.08694966634110161,Oak
60.106504560177044,4.800106745611868,0.25273507679396107,0.020216437471664225,0.9825862005489564,0.000411710913189014,0.01737976074217866,0.04635111490883059,0.03935750325518832,0.14047241210930356,0.3093363444008843,0.19946797688791937,0.08271789550777042,0.05451456705726394,0.04919942220049581,0.06120300292965637,Oak
265.27798528699725,9.909948839474946,0.15808204414513366,0.01286147116340777,0.9522301024955824,0.00016677802605897992,0.02731323242186111,0.05620320638017975,0.05782572428382476,0.15286763509106807,0.27433776855454794,0.16820271809887277,0.08290608723954117,0.05881245930986592,0.04886881510414181,0.07266235351558804,Oak
332.1086335329349,11.873313805144427,0.1164771291609338,0.011700046159632414,0.9264944960326355,0.00013750471746591417,0.04833475748695458,0.06967163085933956,0.06616719563798718,0.13653564453118056,0.21286519368478757,0.14554850260409263,0.08294677734370781,0.07091776529944309,0.06258646647132234,0.10442606608067605,Oak
86.89776559029364,5.398527133700885,0.2718809563091228,0.03326357267639698,0.9426188653371378,0.0011149083766977665,0.021153767903635073,0.049367268880183224,0.045257568359351984,0.14191182454419865,0.2596537272134096,0.19686381022125404,0.0888671874999548,0.06155904134111452,0.06706746419267422,0.06829833984371526,Oak
389.369765566869,11.62434356772111,0.16278564630428044,0.01400641089782219,0.9184826038068483,0.00019701287366051415,0.05798848470049134,0.07350667317704594,0.056854248046846086,0.11294047037754672,0.19128417968740272,0.15000406901034036,0.0856577555338106,0.07585144042964892,0.07563781738277403,0.12027486165358466,Oak
83.62549290177783,5.090481112217363,0.2583586285445797,0.022207826610802315,0.9772142182779984,0.0004964470201733107,0.022572835286446852,0.05027770996091193,0.04042561848956277,0.13561503092441018,0.2853037516274591,0.19553120930979637,0.08669026692703924,0.05807495117184546,0.05607604980465898,0.06943257649736052,Oak
723.0058296759582,13.633099820832904,0.24572513256584902,0.0195250663725395,0.8492744438274725,0.0003836404151045694,0.0424652099609159,0.05248006184893164,0.03619893391925242,0.1100921630858815,0.2397206624347739,0.21134440104155916,0.08155822753902102,0.0650126139322586,0.07471720377600366,0.08641052246089355,Oak
851.762316766255,17.6528755935906,0.16808143047482135,0.015531379776286382,0.8076413197345385,0.00024261951805328085,0.064880371093717,0.07247924804683814,0.05438741048174317,0.10993448893223574,0.17400614420564067,0.1484069824217995,0.08700561523433074,0.08024597167964669,0.08319600423172852,0.1254577636718112,Oak
140.1227763264436,7.430565028907834,0.18887251814221886,0.020799677921613666,0.9516505478620341,0.0004354402651753844,0.026794433593736372,0.05526224772132606,0.05742899576819996,0.15947977701814806,0.2507578531899766,0.17292785644522454,0.08945719401037117,0.060429890950490096,0.05220540364580678,0.07525634765621173,Oak
492.37831800874847,12.100037065496013,0.20894805615076004,0.02133331201571609,0.8692852909666721,0.000458220635120323,0.03689575195310623,0.054565429687472244,0.05019124348955781,0.12957763671868408,0.23981221516914886,0.18942260742177866,0.08510843912756087,0.06299845377600963,0.06671142578121607,0.08471679687495691,Oak
141.1381118957758,7.302408385960377,0.18617623994119295,0.015401784585791143,0.9661346461915161,0.00023884165029973095,0.026204427083320006,0.049504597981745654,0.052912394205702255,0.1498107910155488,0.2853495279946465,0.17949422200511703,0.08131917317704197,0.05362447102861856,0.04982503255205799,0.07195536295569256,Oak
446.5486496060727,14.01305564694659,0.09956452137323436,0.010816768390945558,0.8994602381964789,0.00011750589873646029,0.05148315429684881,0.07174173990881767,0.07191467285152592,0.1360168457030558,0.19860331217437815,0.14349873860669785,0.08608500162756039,0.07091776529944309,0.062408447265593255,0.1073303222655704,Oak
105.54927151413938,5.9759001831206735,0.24345489732118877,0.019785342330747652,0.9732026895875547,0.00039510424044923443,0.016433715820304142,0.042424519856749256,0.041590372721333015,0.1458536783853425,0.30656433105453157,0.20730082193999871,0.08238728841141643,0.05153401692705712,0.05022176106768279,0.05568949381507584,Oak
626.1370221453946,15.86134157159458,0.1099184626988179,0.011274190896344276,0.8612905803014835,0.00012763296148100804,0.0597025553385113,0.0747731526692328,0.06654357910152865,0.1235249837238955,0.18543497721344734,0.13840738932284627,0.08548990885412318,0.07529703776037837,0.07053629557288078,0.12029012044264716,Oak
107.71478038743166,5.993955969480725,0.23318811953176885,0.02023976999202794,0.9689069417854557,0.00041264904110232793,0.027196248372382,0.05434163411455569,0.047465006510392524,0.1383463541665963,0.26380920410142833,0.18172709147126173,0.08579508463537303,0.06158955891923951,0.061935424804656,0.07779439290360626,Oak
345.77534619528956,10.8710434207041,0.17161974961827103,0.017753053096808594,0.9034115232867208,0.00031683854709378776,0.046208699544247334,0.07322184244787942,0.06014506022132358,0.12629699707024827,0.2021687825519805,0.14621480305982146,0.08501688639318593,0.07564290364579486,0.07516479492183677,0.10991923014317326,Oak
108.07560351046664,6.305995674177188,0.2063670819455864,0.019809494529543382,0.9712031510481205,0.00039477938259221203,0.024246215820300166,0.04828389485674627,0.04949442545570399,0.15410359700512996,0.28367106119777236,0.18212890624990735,0.08424886067704049,0.053721110026014346,0.05014546712237033,0.06995646158850609,Oak
338.4452213718815,10.454295128914495,0.22042935534173513,0.023085320331435184,0.883736631668822,0.0005361055667031308,0.03607686360675248,0.06097412109371899,0.05473836263018049,0.1338297526040986,0.2138112386066621,0.1778462727863679,0.09362792968745237,0.06834920247392356,0.06964111328121458,0.09110514322912033,Oak
87.73582217415242,5.189977426555093,0.31031094953593846,0.025006307319400817,0.9690622469985162,0.000632304952145016,0.018615722656240532,0.06037902832028179,0.039225260416646715,0.1255594889322278,0.24190775553373112,0.19909667968739872,0.09024556477859993,0.07572937011714898,0.08177185058589591,0.06746927897131985,Oak
182.36085956165522,7.741641014767811,0.18933647469690412,0.015011826352113098,0.9675387903459793,0.00022665685627542453,0.03320821126300394,0.05663045247392953,0.04928588867184993,0.13508097330722296,0.2735290527342359,0.16915893554678896,0.08016967773433423,0.05965169270830299,0.05798339843747051,0.08530171712235245,Oak
94.62449766008088,6.256412943208684,0.19343765735176383,0.019084268027560965,0.9607921717283545,0.0003662338836559383,0.03552246093748193,0.06432596842444645,0.059921264648407024,0.14369710286451023,0.22254435221342847,0.16141255696606374,0.0899098714192251,0.06794230143225712,0.061686197916635294,0.093037923177036,Oak
378.00641080759607,10.45328139763123,0.23255419389021126,0.016731588947373484,0.924219525647,0.00028175928410645133,0.033589680989566245,0.05422973632809742,0.042104085286436915,0.12578837076816518,0.25183614095039275,0.20002746582021075,0.08907063802078803,0.06466166178382128,0.06268310546871812,0.07600911458329468,Oak
286.0199161283044,9.855167663230754,0.20612430543017107,0.021210993638725424,0.913210435180106,0.000452447399851756,0.03871154785154281,0.061920166015593504,0.05233764648434838,0.12799580891920573,0.22793070475248822,0.16968790690095537,0.08648681640620601,0.06894429524736076,0.07296752929683789,0.09301757812495269,Oak
456.90884399587026,12.535885351600765,0.15278871212484005,0.014671126115617869,0.8713087662598334,0.00021623329281300776,0.04874674479164187,0.06700134277340342,0.056559244791637896,0.1272277832030603,0.2180480957030141,0.16478983561189536,0.0855916341145398,0.06665547688798693,0.062306722005176646,0.10307312011713507,Oak
129.632106130125,7.032861721734843,0.1896919542344121,0.016850988490492328,0.9675020108306844,0.00028555637322985475,0.04100545247393748,0.06321207682288452,0.04984537760414132,0.12492370605462395,0.2501729329425811,0.16208394368481338,0.07929992675777217,0.06656901041663281,0.06552632649736251,0.09736124674474214,Oak
32.79385482970772,3.21993215758169,0.37744469833943045,0.027290722138672792,0.9881988634983152,0.0007507171771924578,0.010045369466140723,0.02970377604165156,0.02502441406248727,0.13425191243482754,0.2739969889321523,0.25751241048163986,0.08610026041662287,0.057322184244762514,0.08397420247391563,0.0420684814452911,Oak
227.8521057477186,10.095835071103982,0.1285366517371101,0.01217857391023969,0.9558811423409896,0.0001490488098504741,0.040339152018208646,0.062403361002572426,0.06535339355465426,0.14881388346346597,0.22665913899728055,0.15824381510408617,0.0848134358723527,0.06389872233069667,0.05673726399736698,0.092737833658807,Oak
319.7730312954557,10.792429637982114,0.14512881858673413,0.014099822149242752,0.941711655544475,0.00019971239358857672,0.04807027180987138,0.07408650716142065,0.06288146972653051,0.13011169433587133,0.20467631022125007,0.14255269368482332,0.08522033691401916,0.07409667968746231,0.06892903645829827,0.10937499999994436,Oak
961.3171761613287,16.487308072228146,0.25699396124210894,0.03210518154718245,0.8232359896307591,0.0010371758255464535,0.04564412434893512,0.06193033854163517,0.04694620768226779,0.11617533365879508,0.17911783854157556,0.1757659912108481,0.08714294433589317,0.07821655273433521,0.10400899251296793,0.10505167643223823,Oak
152.41500996550155,7.975510518817458,0.15714000531349015,0.01468349647789501,0.9627677288129965,0.0002167596186869329,0.033493041992170465,0.05664062499997119,0.05697631835934602,0.1469828287759669,0.26656087239569776,0.1655426025389783,0.08209228515620824,0.05731709798174168,0.05251057942705663,0.08188374837235418,Oak
538.4511374996591,13.503358555580718,0.17482662875155028,0.01737983658951086,0.9534605704057901,0.00030393726013084894,0.04198201497393698,0.06742350260413238,0.06207275390621843,0.1369069417317012,0.1964619954426084,0.15828959147127367,0.08811950683589267,0.07263183593746306,0.07663981119787769,0.0994720458983869,Oak
133.51446152328168,6.963872978126202,0.1870430136411016,0.016559264828094587,0.9688747901437771,0.0002758124880537586,0.03543599446612781,0.061915079752572676,0.05617268880205476,0.13898213704420015,0.24321492513008464,0.16515604654939517,0.08418782552079052,0.06545003255205005,0.05968221028642798,0.08980305989578766,Oak
115.37682864608843,6.855886964925425,0.18775136273609028,0.016076611154823228,0.9677156377928813,0.00026179443826393814,0.020197550455718895,0.060709635416635786,0.050313313802057745,0.14684041341138365,0.2921651204425597,0.17608133951813962,0.08036295572912579,0.06425476074215482,0.04596964518226829,0.06310526529944707,Oak
109.18331601451797,5.686070334947599,0.2614195233932893,0.02185547409420088,0.9648962832853426,0.0004807371973802107,0.02487182617186235,0.0530192057291397,0.0425313313801867,0.13600667317701415,0.2622070312498666,0.19078572591136128,0.08662414550776844,0.062408447265593255,0.06449890136715469,0.07704671223954415,Oak
688.9050659172465,13.51739057707953,0.22001365272653,0.019519246219623428,0.8201553057503221,0.00038348868115266034,0.039433797200500775,0.055999755859346516,0.046000162760393266,0.1274617513020185,0.2337849934894644,0.1871999104816756,0.08649698893224766,0.0644175211588214,0.07060241699215158,0.0886027018228716,Oak
176.99448026438446,8.422255748419373,0.17845340504992163,0.02390472817666987,0.893091172840055,0.0005744083473515727,0.0353851318359195,0.06218973795569754,0.06126403808590634,0.14676411946607118,0.222167968749887,0.16887410481762244,0.0910186767577662,0.06375122070309257,0.059112548828094934,0.08947245279943365,Oak
210.61719058118325,9.344497699298024,0.1550028848614629,0.013968879603318073,0.9546044762396353,0.00019624804897447836,0.030100504557276357,0.05311584472653549,0.05985514322913622,0.15618387858064972,0.26265462239569975,0.17118835449210043,0.08525085449214413,0.05691528320309605,0.0487518310546627,0.07598368326819052,Oak
108.37177663304541,5.069095214450654,0.33489458077701173,0.03461262562238927,0.9290123900487283,0.0012064708691563687,0.019119262695302775,0.03934733072914665,0.032867431640608284,0.12719217936191446,0.264180501301949,0.2346598307290473,0.0906372070312039,0.058690388997365985,0.0738474527994416,0.059458414713511425,Oak
301.3938205190794,10.72726023092831,0.12716994887665745,0.011851040919306928,0.9397254964827416,0.00014126098612040757,0.04417419433591503,0.06879170735673584,0.06200663248694763,0.137995402018159,0.23025512695300787,0.14886983235669513,0.07974751790360528,0.06767272949215308,0.061243693033823016,0.09924316406244953,Oak
411.6086840152554,10.968324149898496,0.22296403249834826,0.02033004751581353,0.8602732861299135,0.0004159748330580512,0.04022725423175037,0.055282592773409384,0.0463358561197681,0.1233266194660831,0.23985799153633633,0.18252054850251134,0.08712259928380986,0.0649973551431961,0.06973775227861036,0.09059143066401643,Oak
195.25391825704702,8.739843927303333,0.16835618950951306,0.015989181816170973,0.9553590902648811,0.00025766531084956996,0.02583312988279936,0.05485026041663877,0.051869710286431954,0.14781697591138315,0.2897491455076651,0.17818705240876354,0.08069864908850062,0.054890950520805414,0.046574910481747146,0.0695292154947563,Oak
183.25574801086339,8.758505890661166,0.15514627855190422,0.01548731858166853,0.9346225314509337,0.00024096419238547184,0.04064941406247932,0.0662384033202788,0.06450907389319635,0.14243570963534422,0.21581013997384857,0.15324910481763038,0.08583577473953967,0.06712849934892419,0.06457010904944632,0.09957377115880352,Oak
298.6381258654663,9.56133733993813,0.21557981746186905,0.02284970868295326,0.9157417580344049,0.0005255469586770927,0.03245544433592099,0.05443827311195148,0.054351806640597355,0.14211018880201104,0.23981221516914886,0.17498270670564017,0.08856709798172578,0.06358337402340516,0.06599934895829976,0.08369954427079077,Oak
148.46057029298424,7.806932390051857,0.171205911517535,0.015167937879726872,0.9620242870350213,0.00023158220648089456,0.02458699544269583,0.04882303873695434,0.05037943522132854,0.15384419759106757,0.30062866210922207,0.17925008138011717,0.08008829752600093,0.05187479654945278,0.04441833496091491,0.0661061604817372,Oak
258.54719370483025,8.093693098347732,0.2793496857345692,0.03231700159705704,0.9336733742889807,0.0010500212464893903,0.03108215332029669,0.05398559570309754,0.045674641927060104,0.13051350911451695,0.21731058756499363,0.19015502929677827,0.09105428059891202,0.06766764322913225,0.08465576171870694,0.08790079752599696,Oak
134.9872089454958,6.407539252976312,0.21618352427481186,0.021448484446431618,0.9707679049024728,0.00046336344643119166,0.031356811523421554,0.06271362304684311,0.052220662434869274,0.13327534993482804,0.2506205240884142,0.1677907307941855,0.08776855468745536,0.06567891438798742,0.06183878580726021,0.08673604329422671,Oak
158.71633799845773,8.825795830269241,0.13116576198060695,0.013242324909172787,0.9594849530517289,0.0001763235952908471,0.03178914388019216,0.05335998535153536,0.057490030924449924,0.149744669596278,0.28493754068995925,0.17323303222647438,0.0789082845051682,0.051478068033827984,0.04403177897133177,0.07502746582027434,Oak
261.45904037101593,9.966275869187323,0.15760565132264065,0.017839374952983583,0.9294433279571158,0.0003197175472289194,0.04455566406247734,0.0707041422525682,0.060541788736948376,0.13312784830722396,0.21318054199207906,0.1486663818358619,0.08631896972651859,0.07124328613277627,0.06714375813798668,0.104517618815051,Oak
31.636995157377363,3.545215763198026,0.3423230799664587,0.027696298149954387,0.9929273367714764,0.0007736957535043657,0.00518290201822653,0.024225870768216844,0.01894632975259453,0.13144429524732898,0.34949239095034307,0.2525736490884132,0.07339477539058767,0.04588826497393499,0.06642150878902872,0.03243001302081684,Oak
49.98722292515961,4.3691063186805845,0.2684362883593122,0.022421596882792966,0.982174375982219,0.0005058215380017177,0.022293090820301162,0.05281575520830647,0.04635111490883059,0.14270019531242742,0.2539469401040375,0.19236755371083966,0.09225972493484891,0.06021626790361521,0.061014811197885634,0.07603454589839882,Oak
265.82698405707515,10.686782418943288,0.13698536848842516,0.014883939220846095,0.893459669901214,0.00022255681753068969,0.04445393880206072,0.0702718098957976,0.06639607747392456,0.13845825195305458,0.20580037434885365,0.15313720703117212,0.08906046549474637,0.0697275797525687,0.0613403320312188,0.10135396321609429,Oak
471.59930587070903,10.741205773090597,0.23628423395419296,0.020859876176544345,0.8609760069833226,0.00043789881985784843,0.039062499999980134,0.05986022949215705,0.04434712727862328,0.12220255533847951,0.2336629231769645,0.1807912190754289,0.08853149414057997,0.06783548990881966,0.07034301757808922,0.09336344401036918,Oak
153.45121304391944,7.8694294045074,0.17682212436992334,0.01683129198206179,0.9640628759947698,0.00028476207187636807,0.040181477864562894,0.07013956705725599,0.053888956705701756,0.13512674967441043,0.2274932861326968,0.1479441324869039,0.08357238769526999,0.0715128580728803,0.06832885742184025,0.10181172688796905,Oak
139.2382332717205,6.5593715517377875,0.2707189471176511,0.022665694403887684,0.9426803276528346,0.0005174239306757727,0.025065104166653918,0.05077616373695334,0.04153951009112471,0.13086446126295428,0.2617238362628877,0.19806925455719093,0.0869649251301641,0.06358337402340516,0.06771850585934056,0.07369486490881669,Oak
1050.1101394150935,17.44004953120143,0.15783464348926574,0.01707666286102469,0.7579865922996929,0.0002929867801597054,0.06162516276038532,0.0759480794270447,0.04883829752601682,0.11182149251296396,0.19498189290354667,0.15001424153638204,0.08432515462235295,0.07589213053381556,0.07645670572912777,0.12009684244785558,Oak
197.79440037188198,8.300081322743328,0.19536283000107707,0.015697735821053743,0.9599547650293804,0.00024776291745568906,0.038014729817689,0.06509399414059189,0.05531311035153436,0.13741048177076345,0.22320556640613648,0.16181437174470936,0.08658854166662262,0.07035827636715171,0.06760152180986145,0.09459940592443106,Oak
113.59439308631624,7.034408075842913,0.18656472070954094,0.0179076166422949,0.9542931547297798,0.0003224409206162258,0.029459635416651683,0.052246093749973424,0.05851745605465774,0.15763854980460731,0.24551391601550013,0.17645263671866024,0.08969624837235021,0.05842590332028278,0.053929646809868406,0.07811991373693944,Oak
362.22518379213375,11.1899306591216,0.16104581168866344,0.015773028795719773,0.9415248465881991,0.00025017718924710873,0.03313191731769148,0.0553181966145552,0.0551045735676803,0.1427459716796149,0.2684275309243426,0.17510986328116093,0.08242797851558308,0.0571543375650751,0.0510508219400782,0.07952880859370955,Oak
88.88222188941822,5.213170038712303,0.2731457323110682,0.023290828787804675,0.9676878926375554,0.0005459860283130985,0.02412414550780023,0.05165100097653623,0.03829447428383469,0.13159179687493308,0.27829488118475426,0.18958028157542442,0.08450826009110285,0.06248982747392655,0.064880371093717,0.07458496093746206,Oak
94.24771971336735,5.992084076243451,0.217429435683583,0.02134539337413262,0.9540248668068733,0.00045814940765700226,0.03317769368487896,0.060852050781219046,0.051661173502577894,0.13605753580722246,0.2383168538410246,0.17495218912751517,0.08899434407547557,0.06334431966142612,0.0643361409504881,0.08830769856766342,Oak
127.07303969605726,7.521092333903997,0.16439215236112548,0.018172894548462878,0.9385967839956149,0.0003320578025207091,0.03400166829425354,0.06041971842444843,0.05538940429684683,0.14559936523430095,0.2605082194009092,0.16093953450512646,0.08030192057287583,0.061523437499968706,0.055979410807263194,0.08533732096349826,Oak
210.17534249802804,8.926049737783494,0.18381321413027946,0.01638462858362155,0.9349918251393392,0.0002698971743846729,0.04092915852862502,0.06689453124996597,0.060612996419240006,0.12970479329420487,0.21463521321603665,0.16005961100252275,0.09089152018224543,0.06962585449215208,0.06591288248694564,0.10073343912755293,Oak
222.72964989245665,9.203423329923606,0.16456786515242908,0.013953206620982836,0.950093734415385,0.00019585032975892214,0.02569580078123693,0.04668172200518459,0.05145772298174466,0.15226745605461006,0.3061167399086985,0.18125406901032448,0.07697550455725251,0.04937235514320405,0.043726603190081925,0.0664520263671537,Oak
176.09489654811995,6.361070203051867,0.3099374769352389,0.025250588974111608,0.9401623550383226,0.0006421510588526646,0.023529052734363034,0.0429941813150823,0.037368774414043494,0.12891133626295526,0.24596150716133322,0.21742248535145192,0.08409627278641556,0.06404622395830076,0.08868916829422573,0.0669809977213201,Oak
367.1444930042726,12.466159913628198,0.11827764591119663,0.011577635960038246,0.9143204730220662,0.00013473730687255453,0.04201761881508279,0.06420898437496735,0.06501770019527943,0.14412943522128085,0.23551432291654686,0.1540934244790883,0.0818684895832917,0.06373596191403008,0.056467692057262944,0.09294637044266106,Oak
105.90723163792867,6.317958650875731,0.20583624474048642,0.018137489400916192,0.9668673091943321,0.0003309881533363185,0.02343749999998808,0.04830932617185043,0.04655456542966382,0.1480255126952372,0.296274820963391,0.18914286295563296,0.0820515950520416,0.05276489257809816,0.04691060384112197,0.06652832031246617,Oak
211.8517853372297,9.042741628227125,0.1832075637541266,0.015882451099828034,0.9369089236791261,0.00025365700222663897,0.029144287109360175,0.05018107096351614,0.05520629882809692,0.14710489908846686,0.26819864908840524,0.18625895182282193,0.08569844563797724,0.05501302083330535,0.049875895182266296,0.07331848144527521,Oak
385.1706002073984,12.389918779814712,0.12788160046653527,0.014035778984887509,0.9468405738283416,0.00019793954449333188,0.03965759277341733,0.06479899088538371,0.06837463378902772,0.1499074300129446,0.21878560384103454,0.14835611979159122,0.08359781901037415,0.06719462076819499,0.06187947591142686,0.09744771321609627,Oak
150.86727509704838,6.197418212111215,0.3198217457505853,0.0294534061448789,0.951361530385525,0.000873233562494099,0.019775390624989942,0.03619384765623159,0.031661987304671395,0.1323089599608702,0.2731221516925694,0.22880045572905028,0.0820668538411041,0.05882263183590758,0.08044942220047992,0.05679829915361694,Oak
119.36223213960031,6.908865177422012,0.17897707760512233,0.01715672534813597,0.9704686398862051,0.0002959702326776182,0.03052775065102614,0.055699666341117504,0.05375671386716016,0.1469472249348211,0.2683410644529885,0.1727244059243913,0.0813242594400628,0.05805969238278297,0.05217997233070262,0.08043924967443826,Oak
488.0455754431607,13.544496608701412,0.14815514811557656,0.013791153292462577,0.8882224734893374,0.0001911868568423475,0.049784342447891344,0.0673929850260074,0.054214477539034925,0.1197357177733766,0.2306060791014452,0.16220601399731333,0.08269755045568711,0.0685526529947568,0.062169392903614215,0.10264078776036446,Oak
571.8633438732664,13.76582586478199,0.18502072061102764,0.015777632642113484,0.8224363586402066,0.00025028594123311293,0.05375671386716016,0.06630961100257043,0.0519765218098694,0.1149393717447332,0.20485432942697915,0.16222127278637583,0.08619689941401866,0.07322184244787942,0.07554117838537824,0.11098225911452689,Oak
642.3420536710637,12.583264909476643,0.2646154908417137,0.03055532590957543,0.91085477517585,0.0009385265161692013,0.044331868489560784,0.06414286295569654,0.05064900716143257,0.11988830566400152,0.15943400065096058,0.16355895996085432,0.0817362467447501,0.08269755045568711,0.12109374999993841,0.11246744791660947,Oak
120.52443897807814,6.9069220070094905,0.1995114884137028,0.017233670525502072,0.9627228068499734,0.0002988146864586996,0.02611287434894505,0.05212910970049432,0.053029378255181364,0.15141296386711048,0.26736958821600987,0.18073018391917892,0.08641052246089355,0.05689493815101273,0.052241007486952595,0.07366943359371253,Oak
545.6617624031747,13.410365628990025,0.20307956368430116,0.017353511743314284,0.9038248543551684,0.0003028883279330034,0.053960164387993385,0.06766255696611141,0.05239359537757752,0.11446634928379594,0.18692016601552994,0.16171773274731358,0.08725484212235145,0.0785115559895434,0.08379618326818654,0.1133168538410882,Oak
179.4968479110516,8.335719534451698,0.16943327081932408,0.015767358105696686,0.9475205511890422,0.00025026195509356245,0.03338623046873302,0.059524536132782226,0.0562947591145547,0.14181518554680286,0.2598063151040345,0.16581726074210315,0.08246866861974972,0.06178792317705191,0.05588277180986741,0.08321634928381184,Oak
695.9554090640155,13.017528115051118,0.2640017140970514,0.034871493420898764,0.9266410521926183,0.001220628306435869,0.04145812988279141,0.0657908121744457,0.05012003580726617,0.12045796712233456,0.1649475097655411,0.16339619954418771,0.08040364583329243,0.0818023681640209,0.11963907877598082,0.11198425292963055,Oak
169.9335115169703,7.356356191914452,0.2057969159901523,0.019535067684785357,0.9581428748499928,0.00038378702194451794,0.03460184733071157,0.0633087158202803,0.04845174153643369,0.13640340169263895,0.24015808105456535,0.16482543945304118,0.08028666178381333,0.06672159830725773,0.07025146484371426,0.09499104817703502,Oak
66.25760447240843,5.072341019565728,0.2245149231391928,0.02189787574848348,0.9715798165511975,0.0004828583695861785,0.0254262288411329,0.05617777506507559,0.0513814290364322,0.14339701334628124,0.2616729736326794,0.18128458658844945,0.08883158365880899,0.05970764160153213,0.054814656575492955,0.07730611165360651,Oak
121.14949536162759,6.752112163049794,0.19579091042212857,0.019393646726978603,0.9658761531240387,0.00037817992646910036,0.032257080078108596,0.05651855468747125,0.050175984700495314,0.13629150390618067,0.27246602376288226,0.17076110839835065,0.08278401692704122,0.05905151367184496,0.05690002441403356,0.0827941894530829,Oak
284.08985538697686,10.085496496804108,0.19841456116745365,0.019068806103972793,0.9489527606729715,0.000365891742598011,0.03645833333331479,0.05749511718747076,0.05605570475257565,0.13660176595045134,0.23329671223946466,0.17413838704418227,0.09011332194005833,0.06482442220048786,0.0642852783202798,0.08673095703120588,Oak
575.8687572104112,13.877918283385796,0.18651953336425323,0.01683825214838627,0.8165289122537148,0.0002851581585184871,0.05371602376299351,0.06593322753902897,0.05062866210934925,0.1137644449869213,0.20627848307281174,0.16684468587231097,0.08590189615881047,0.07232666015621321,0.07526652018225338,0.10933939615879855,Oak
298.9428067465435,8.973359772385649,0.26499849616807203,0.01912790233851573,0.9213036636240622,0.00036830668400490073,0.029490152994776666,0.049016316731745904,0.04206339518227027,0.12809753417962236,0.2404174804686277,0.21424865722645353,0.08754475911453881,0.06422932942705066,0.07302347819006702,0.07186889648433845,Oak
97.17952279357829,5.801128117893534,0.22077186453710312,0.019660873880877013,0.968718942010241,0.0003887603310330594,0.028320312499985595,0.05606587727861732,0.05051167805987014,0.1408081054686784,0.26047261555976337,0.17516072591136925,0.08715820312495567,0.060963948567677326,0.05880228678382426,0.0817362467447501,Oak
262.8424595303585,9.080479685742608,0.2094686102886612,0.017194521388314093,0.9290857762671967,0.0002973180614640462,0.031667073567692224,0.056925455729137715,0.05116780598955731,0.13432312011711917,0.2509613037108099,0.18713887532542564,0.09062703450516224,0.06031290690101099,0.055720011393200826,0.08115641276037538,Oak
725.6483249732656,16.288460121048576,0.18120468030134668,0.015685847471197424,0.8321657033825982,0.0002473470378416413,0.05550638834632594,0.0675099690754865,0.05251057942705663,0.11478678385410829,0.1925760904946937,0.15889485677075252,0.08203633626297911,0.07575988769527396,0.08505249023433174,0.11536661783848298,Oak
132.65265660098711,6.789978963237555,0.20605665013652308,0.01636516979507933,0.9684045676399209,0.0002693643981678812,0.03189595540362961,0.05812581380205377,0.04909769694007919,0.13297526041659904,0.2672119140623641,0.17201232910147501,0.083541870117145,0.06119283040361471,0.05981445312496958,0.08413187662756137,Oak
61.553924722458675,4.083637652641915,0.33844335067209763,0.02480199375719324,0.9791529890236617,0.0006199081954722771,0.015655517578117038,0.04413350423174839,0.030502319335921985,0.1283060709634764,0.2746734619139228,0.21583557128895273,0.08689371744787247,0.06379699707028005,0.07846577962235593,0.0617370605468436,Oak
252.2215778596437,10.328682668135048,0.13944050244012163,0.01327757619369091,0.9511667078650157,0.00017744261584126648,0.03148905436196315,0.054097493489555816,0.056371053059867164,0.14771525065096652,0.28123982747381526,0.17580159505199391,0.07776387532548128,0.054219563802055754,0.04681905110674702,0.07448323567704544,Oak
402.3979450839157,10.924935445207606,0.19941768442216617,0.01731602283768286,0.900828260171386,0.00030186285067416226,0.0363769531249815,0.05578613281247163,0.04670206705726791,0.12517293294264467,0.2573394775389316,0.19390360514313054,0.08164978027339596,0.060892740885385696,0.059244791666636536,0.08293151855464533,Oak
108.69934410545335,6.689381707279868,0.18947891743049763,0.018256095092042155,0.9583366782631937,0.0003352018922836796,0.028040568033839905,0.05362955729163939,0.05521647135413858,0.15321350097648456,0.2642008463540323,0.17175292968741265,0.08655802408849764,0.0576171874999707,0.05273437499997318,0.07703653971350248,Oak
180.9919400416103,7.512455238952705,0.20376080395143975,0.021624424477614743,0.972267808078542,0.00046927126497008597,0.031794230143213,0.058441162109345274,0.05620320638017975,0.14843241373690366,0.2331695556639439,0.16465759277335376,0.08760579427078878,0.06369018554684261,0.06907653808590236,0.08692932128901829,Oak
590.1348571132676,14.434959623362586,0.1712989523125467,0.01628442917583249,0.86485218666058,0.00026679849683325005,0.04325358072914467,0.06433105468746728,0.058364868164032815,0.12875366210930952,0.2127227783202043,0.1646016438801246,0.0832265218098535,0.07098388671871389,0.07228088378902574,0.10148111979161505,Oak
606.2627685706661,12.773965414148565,0.22702236594020087,0.025010226987057287,0.902608213944108,0.0006280428433543368,0.03965759277341733,0.05697631835934602,0.045583089192685146,0.12262980143222929,0.23066711425769518,0.1747080485025153,0.07873535156245995,0.06707763671871589,0.08704630533849739,0.09691874186192988,Oak
587.7115807792937,13.878163762516493,0.13423564877983213,0.01069604729089608,0.92363246110888,0.00011495534043778198,0.05394490559893089,0.07587687174475308,0.06090799967444819,0.12019348144525137,0.2080078124998942,0.13679504394524292,0.08058675130204235,0.07624308268225288,0.07304382324215035,0.11440022786452514,Oak
157.29333452496203,6.460786364911837,0.2730287932072758,0.022617610750077406,0.9655866514884028,0.0005149790290910916,0.036951700846335374,0.06930033365881892,0.04417419433591503,0.11996968587233481,0.2009124755858353,0.16468811035147873,0.08778381347651786,0.08212788899735406,0.09329223632807755,0.10079956054682374,Oak
581.9925168139068,14.453255634626647,0.18077606693261464,0.020000076950220057,0.81162848823672,0.00040224258350598564,0.05606079101559649,0.06711832682288253,0.05513509114580529,0.1190236409504603,0.1871490478514673,0.16066996256502245,0.09039306640620402,0.07504781087235766,0.07827250162756436,0.11112976074213098,Oak
354.4023891003485,11.973038103653462,0.12410658978676015,0.012308034765599864,0.9222891932793832,0.0001522522968080508,0.04543558756508106,0.06967163085933956,0.06340535481767608,0.13112894694003746,0.22949218749988326,0.1492614746092991,0.08139546712235443,0.06940714518225637,0.061274210611948,0.09952799479161605,Oak
213.3610593311842,8.115090320393014,0.20008946233727692,0.017170663512881955,0.9447984731766379,0.0002963582670318764,0.042078653971332765,0.07091776529944309,0.05151875813799463,0.12447102864577002,0.22547912597644781,0.15298970540356802,0.08386230468745734,0.07264709472652554,0.07178751627600516,0.10424804687494697,Oak
476.9040661631019,13.369018723300956,0.17243146363527395,0.016208094598485098,0.9028169882691536,0.0002643270455759423,0.04846700032549618,0.06860351562496511,0.058156331380178755,0.1241861979166035,0.19309488932281846,0.16087341308585568,0.08354695638016583,0.07460530598954539,0.08364359537756162,0.10482279459630085,Oak
456.65048773257416,11.517620068992379,0.24974915418033397,0.026936516048921735,0.8451909518232454,0.0007299059168705429,0.04331461588539463,0.06143697102861458,0.04572550455726841,0.11786905924473172,0.20257568359364697,0.17387898763011989,0.08749898274735132,0.07458496093746206,0.09025573730464159,0.10285949707026018,Oak
149.02781371464775,7.4598309041414685,0.1880671928432358,0.015339210762978511,0.9625502038728855,0.00023661878310032148,0.03019714355467214,0.0511830647786198,0.048599243164037784,0.14199829101555278,0.2845509847003761,0.1810455322264704,0.07847086588537676,0.05524698893226357,0.05296834309893139,0.07573954264319065,Oak
293.51895603785965,9.865207606557972,0.17449910841692517,0.01692657108765306,0.9659144614585944,0.0002882766956495941,0.025721232096341085,0.05192565917966109,0.04991149902341211,0.15179951985669363,0.29130554199203934,0.1682383219400186,0.07690429687496088,0.055745442708304976,0.05299886067705638,0.07544962565100329,Oak
79.63210882709193,5.645875728898803,0.2169921138295182,0.021714016980831155,0.9618913858363565,0.00047504425607676357,0.021235148111968367,0.04769897460935074,0.04591878255205998,0.14973958333325718,0.29523213704412066,0.19112141927073611,0.08324686686193683,0.05200703938799438,0.04776000976560071,0.06604003906246642,Oak
146.21796228442838,7.866206623845667,0.16320992753593974,0.015319795609869716,0.9616703760218419,0.00023604234247870897,0.024566650390612503,0.0464019775390389,0.0517628987629945,0.15636698404939964,0.30525207519515724,0.18238830566396974,0.07842508951818927,0.047739664713517385,0.041620890299457994,0.0654754638671542,Oak
108.41710943957317,5.840762556765341,0.2634769748589894,0.024517469858488516,0.9726328658713905,0.0006050099468499371,0.022516886393217715,0.05062866210934925,0.04675292968747622,0.146830240885342,0.2506917317707058,0.18905639648427883,0.09177652994786999,0.06172180175778111,0.06554667154944582,0.07447814941402461,Oak
648.7713807808368,12.983813414899007,0.20617237320931384,0.019911279231310853,0.9190614865433273,0.0003984545918634839,0.05130513509111974,0.07327779134110857,0.05265299479163989,0.11805216471348162,0.18431599934886458,0.1494954427082573,0.08566284179683142,0.07835896809891847,0.08633931477860192,0.12053934733066786,Oak
235.41878840259434,10.012811060153048,0.15468414873496814,0.014630917036007968,0.9315380500044588,0.00021535820708497915,0.03113810221352583,0.054031372070285015,0.057952880859345524,0.1473439534504459,0.27124532063788287,0.17163594563793352,0.08132934570308363,0.05684916178382525,0.050710042317682544,0.07776387532548128,Oak
277.57669571333946,10.104309795672338,0.1595969735023658,0.013396177389536457,0.9458092138484512,0.00018050741826924107,0.0393218994140425,0.06789652506506963,0.06026204427080268,0.13711039225253444,0.2296956380207165,0.15597534179679567,0.08592732747391463,0.06813557942704868,0.06221516927080169,0.09346008300776497,Oak
290.2713079035714,9.68117212735056,0.27335622693646777,0.07036420671446997,0.9665558467151999,0.004952609991837286,0.0417378743489371,0.06401062011715494,0.05444335937497231,0.11716715494785707,0.1524759928384641,0.15180969238273528,0.07970174153641779,0.07506815592444098,0.1620534261066884,0.10153198242182336,Oak
301.418055672605,11.406893837273795,0.11563996168465449,0.012470706624817522,0.9166065769897426,0.00015632595807764558,0.03949483235675075,0.05976359049476127,0.06035359700517764,0.14446004231763485,0.26078796386705483,0.1603190104165851,0.07648722330725276,0.05830891927080368,0.05232238769528589,0.08770243326818455,Oak
119.86756615521378,6.489783223446815,0.2028822307374995,0.021235835376517104,0.9656956967525986,0.00045358956140186186,0.031051635742171707,0.058898925781220045,0.05436706542965985,0.14308166503898972,0.24942525227851897,0.17076110839835065,0.08876037597651736,0.06304931640621793,0.05642191569007547,0.08418273925776969,Oak
147.0884641082102,7.737780241514963,0.16965213514071478,0.014722321488402888,0.9635976707479441,0.00021829634174984976,0.027221679687486153,0.05568949381507584,0.053126017252577144,0.14821370442700796,0.2843068440753762,0.17374674479157828,0.07945760091141792,0.05879720052080343,0.0490315755208084,0.07040913899736002,Oak
170.14519265375566,7.761712479524951,0.2041232517404542,0.018490496581802587,0.9544748441988878,0.0003438765152836751,0.030954996744775923,0.05651855468747125,0.05486043294268043,0.13964335123690813,0.25209045410143427,0.17699686686188915,0.09013875325516249,0.061172485351531386,0.05742390950517912,0.08020019531245921,Oak
117.50168502143052,6.596810228152022,0.21222547490079754,0.018596273659075666,0.9705608034792694,0.00034806533249698095,0.023498535156238048,0.04619344075518484,0.051152547200494815,0.15092468261711073,0.274007161458194,0.20002237955718993,0.08651224772131016,0.05299377441403554,0.04763285319007994,0.06706237792965339,Oak
459.4919748236187,11.10577336620021,0.25644652760537734,0.02377921981225421,0.8518086468566766,0.0005695026471319908,0.03153991699217146,0.04730733235674677,0.04083760579425006,0.1263020833332691,0.2544199625649748,0.21069844563791368,0.08405049641922809,0.06256612141923901,0.0699920654296519,0.07228597005204657,Oak
202.85227676453079,7.3442053554333055,0.23924612756745284,0.022040559443688892,0.9564286860486144,0.0004895824239119431,0.03037516276040122,0.057973225911428845,0.04709370930987188,0.1312662760415999,0.24831136067695703,0.1807963053384497,0.08883158365880899,0.06538899739580008,0.06668090820309108,0.08328247070308264,Oak
309.22005602359985,9.211780602834263,0.23515223467739033,0.018743098777887008,0.9214694283084632,0.0003541403415925177,0.029276529947901777,0.048294067382787936,0.03810628255206395,0.12348937988274969,0.28636678059881265,0.2083689371743732,0.07683817545569008,0.05826822916663703,0.05907185872392829,0.07191975911454675,Oak
200.40657723482482,7.12134404924679,0.26561865722529376,0.021900808765066972,0.9289376972062229,0.00048291294358571824,0.024113972981758568,0.04280090332029073,0.03939310709633413,0.13322957356764056,0.28047180175766984,0.2141469319660369,0.0844014485676654,0.05585225423174243,0.05881245930986592,0.06677754720048687,Oak
361.2837531729591,9.801439530989656,0.21356078468244033,0.020504754557012977,0.9619082711781466,0.0004229394459303918,0.038208007812480564,0.06534322102861259,0.05228169759111924,0.13115946451816246,0.21724955240874366,0.15425109863273403,0.08076477050777142,0.07251993815100478,0.08956909179682944,0.09865315755203316,Oak
419.2373029710325,12.887786552074905,0.16396793374114224,0.016138582674541026,0.8163028979915223,0.00026163939599676536,0.05302429199216053,0.07130940755204707,0.06140136718746877,0.11889648437493952,0.18816121419261264,0.15446980794262977,0.09062703450516224,0.07441202799475381,0.07442220052079548,0.11327616373692155,Oak
270.1908763998407,9.943319263917726,0.15761695689871005,0.014975304091080294,0.9184053456679149,0.00022547404344811173,0.035700480143211005,0.0552520751952844,0.0579325358072622,0.14764912923169574,0.25179036458320525,0.1692810058592889,0.08255513509110385,0.0596364339192405,0.055308024088513534,0.08489481608068598,Oak
713.0540572016403,16.844396703063694,0.13225213121807672,0.01154794416195654,0.8692227429711956,0.00013401047511365724,0.05754089355465823,0.07496643066402436,0.06000264485674031,0.11604309082025348,0.19856770833323234,0.1397043863931581,0.07797241210933534,0.07706705729162747,0.0781809488931894,0.11995442708327232,Oak
145.43760105029284,8.008951027880464,0.1587259341178424,0.016088686436698786,0.9471486642241876,0.0002602024636782649,0.03454589843748243,0.05842081705726195,0.06351216634111354,0.14698791503898773,0.2397867838540447,0.1740620930988698,0.08937581380203788,0.058990478515594996,0.050806681315078324,0.08351135253902002,Oak
562.0422740404014,12.578942823837442,0.18314880627030314,0.019441325967787852,0.8027850470377433,0.000380052166329157,0.042475382486957564,0.05986022949215705,0.053888956705701756,0.1368764241535762,0.2271626790363428,0.16952006022126795,0.08874511718745486,0.06431579589840479,0.06214396158851006,0.09501139322911833,Oak
188.27735140515182,7.539678690631611,0.2183342615166496,0.022945997094447307,0.9719677400321092,0.0005296452253316759,0.02467854817707078,0.05283101399736896,0.04836018880205874,0.14935302734367403,0.2688903808592382,0.1738332112629324,0.08332316080724929,0.06134541829423963,0.060643513997364985,0.0767415364582943,Oak
134.01670834686956,7.155183089431098,0.17915341481074043,0.015605697405003295,0.9696531571564727,0.00024473033300940897,0.03688557942706457,0.063888549804655,0.059875488281219545,0.13898213704420015,0.23310852050769393,0.16020711263012685,0.08660380045568512,0.06693522135413262,0.06095377604163566,0.09255981445307793,Oak
320.3430924857881,8.935695570924008,0.21722343580135026,0.02191179835979185,0.8725256017269427,0.0004827116495405943,0.037048339843731154,0.05779520670569977,0.052586873372369086,0.14014689127597038,0.22669474283842636,0.17546081542959827,0.09104919433589119,0.06298319498694713,0.06398518880205079,0.09224955240880725,Oak
505.6277350532913,12.55120764897735,0.20066787983398415,0.01819051636927416,0.8772505643805568,0.0003329350558177364,0.0513814290364322,0.06574503580725823,0.04925537109372495,0.1142272949218169,0.20844014485666482,0.16899617513012238,0.08660380045568512,0.0723063151041299,0.07437133789058717,0.10867309570306972,Oak
237.80822281313823,8.739148904988568,0.22378500951488062,0.018107528035299813,0.9357529984445438,0.00032997927925286085,0.03432210286456588,0.05507914225257615,0.05192565917966109,0.13481140136711894,0.2346445719399848,0.1787923177082424,0.08659871419266428,0.0657246907551749,0.07194010416663008,0.08616129557287285,Oak
230.5081446771932,8.939679801852712,0.15917715785629544,0.013637354735305243,0.9531041956997277,0.00018691492562405204,0.04132588704424981,0.06667582194007025,0.061594645182260335,0.14144388834628221,0.22482299804676065,0.14761352539054992,0.08355204264318666,0.07034810384111005,0.06391906738277998,0.09870402018224146,Oak
244.17614673555914,9.101664633902189,0.1901567367125912,0.01611424863697246,0.9620383559884225,0.0002614167170104173,0.028208414713527318,0.05077107747393251,0.053476969401014464,0.14568583170565508,0.26454162597642794,0.18994649251292423,0.08376566569006157,0.05752563476559574,0.053894042968722584,0.07218424479162995,Oak
372.84121581150805,11.23428864208261,0.20232875872632336,0.016094311137220912,0.9302100822534821,0.0002607976586282667,0.04035441080727114,0.061243693033823016,0.05205281575518186,0.12590026855462347,0.22367858886707373,0.17590840657543136,0.08551025390620651,0.06833394368486108,0.07390340169267075,0.09311421712234848,Oak
208.02730880333337,8.206922755807472,0.20343423497972724,0.021211776757727886,0.9427944502915893,0.0004525836068934578,0.030960083007796752,0.054814656575492955,0.054885864257784585,0.14442443847648903,0.24968465169258133,0.17606099446605628,0.08821105957026763,0.062199910481739194,0.05808003743486629,0.08067830403641729,Oak
640.6578631496585,14.259634787457697,0.20824211652382169,0.01909871884421249,0.8274465094454118,0.00036689615882819725,0.05846659342444943,0.0644175211588214,0.04342142740883208,0.10850524902338231,0.200892130533752,0.1675618489582481,0.08459981282547781,0.07354227701819176,0.08587646484370633,0.11271667480463017,Oak
120.4281304370206,6.244178009175058,0.2179583050332268,0.016951786510505423,0.9777370390094787,0.0002889545621106012,0.029006958007797748,0.05791727701819971,0.05137634277341137,0.13860066731763784,0.2590077718097641,0.17229715983064153,0.08634948730464358,0.06295267740882214,0.060038248697886126,0.08245340983068723,Oak
240.41004939827778,9.89428407102232,0.1493549821186349,0.015256214809916499,0.9305884703910764,0.00023400184114536092,0.03612772623696079,0.06011454264319859,0.05920918782549072,0.1424001057941984,0.25223795572903834,0.1652781168618951,0.08297220865881197,0.06100463867184397,0.05536397298174267,0.08529154459631079,Oak
625.9508879821688,14.347561166641984,0.1427859735023346,0.013643744877603194,0.8718776484623899,0.00018702819756907378,0.056233723958304734,0.08029683430985499,0.05691528320309605,0.11459350585931671,0.19410196940094293,0.1405283610025327,0.08445739746089455,0.07791646321610621,0.07618713378902375,0.11876932779941876,Oak
198.76471693122016,8.907455048143627,0.15911659580207596,0.013596043943324577,0.9592354010038756,0.00018584083727624196,0.03490193684894058,0.058161417643199584,0.05901590983069915,0.14617919921867564,0.25418599446601653,0.1598154703775229,0.08369954427079077,0.06246948242184323,0.05615743001299227,0.08541361490881072,Oak
118.97633967358996,6.476255098678456,0.20618825410110447,0.021174683902756973,0.9446963234013357,0.0004508644766345806,0.03207397460935869,0.057551066080699896,0.053029378255181364,0.1467030843098212,0.24700927734362435,0.16986592610668444,0.08695983886714327,0.06339518229163442,0.05926513671871986,0.08414713541662387,Oak
460.5972492304686,11.820244415445432,0.20707137600987,0.02106831136078678,0.8231497489185632,0.0004462107569728962,0.04862976074216276,0.06496683756507113,0.052937825520806406,0.12225341796868781,0.198577880859274,0.16374715169262505,0.08841451009110086,0.07424926757808724,0.07852172851558506,0.10770161946609105,Oak
179.16473868511372,8.347528841259564,0.1692007474971714,0.015630246911457448,0.9448241579663974,0.00024556165528998074,0.03954060872393822,0.06654357910152865,0.05868021647132432,0.13814290364576307,0.22841898600248797,0.1581980387368987,0.08400472005204061,0.06731160481767409,0.06246948242184323,0.09668986002599249,Oak
465.451805587222,12.906152430073952,0.2080889539400825,0.019305282048438677,0.8694372863123782,0.0003756309531972709,0.0414886474609164,0.06275939941403058,0.053075154622368836,0.12614440917962333,0.19977823893219004,0.18212381998688654,0.08418273925776969,0.07547505696610744,0.08411661783849889,0.09085591634109962,Oak
562.862292855112,14.641049765659968,0.13103707262165834,0.013184598736428028,0.8461905414837216,0.00017454259140028196,0.06069437662757329,0.07985941569006355,0.06366984049475928,0.11618550618483674,0.17646280924470192,0.13456726074211905,0.08602905273433124,0.07946777343745957,0.07709248860673162,0.1259714762369151,Oak
261.2026614671738,10.385011116605034,0.14933258743177394,0.015896582412806427,0.9066715601945633,0.00025394780309126257,0.04068501790362514,0.06464640299475878,0.06722513834631998,0.1425476074218025,0.2155151367186404,0.16064961751293913,0.08910624186193385,0.06597391764319561,0.0594380696614281,0.09421284993484791,Oak
306.5238011168909,10.799988669401356,0.14664960065621513,0.01577769015103102,0.9051211379187203,0.0002503412320404337,0.04907735188799587,0.07561238606766987,0.06371561686194675,0.12902832031243439,0.19500223795563,0.14364624023430195,0.08773803710933037,0.07661437988277353,0.06821187337236113,0.11135355631504752,Oak
194.76702678888623,8.574568667473532,0.16886036185227307,0.014143305095624784,0.9572855349207062,0.00020128695498881823,0.028605143229152117,0.05640157063799214,0.05412292480465997,0.14747111002596666,0.27812194824204606,0.1708526611327256,0.08240763346349975,0.05774434407549146,0.04978942871091217,0.07448323567704544,Oak
639.7388245043868,14.066464513860808,0.19022818284765794,0.01869094907226841,0.8372963073275441,0.00035158778454609903,0.044677734374977275,0.06626892089840379,0.054845174153617934,0.12482198079420735,0.21226501464832953,0.1633911132811669,0.08823649088537179,0.07133992513017205,0.071431477864547,0.10272216796869775,Oak
689.5639742320313,13.302327812016152,0.24162254356989707,0.020299971316357447,0.8214566111392678,0.00041503143249725194,0.0368906656900854,0.048487345377579504,0.04062398274737517,0.12229410807285447,0.24914550781237327,0.2098744710285391,0.08434041341141543,0.06097920735673982,0.06734720865881991,0.0800170898437093,Oak
488.1112595497902,12.39592522407308,0.20598903424931503,0.01505817377372778,0.9124646047883962,0.00022814229110565485,0.04670206705726791,0.06172180175778111,0.04979451497393301,0.11741129557285694,0.2166290283202023,0.17966715494782529,0.08345540364579089,0.07014465332027682,0.07430013020829554,0.10017395019526155,Oak
495.25535484957237,13.514138177153514,0.1432768431407996,0.012223312543330868,0.9001657174732214,0.00015015621026592498,0.043940226236956814,0.06461079915361297,0.06060282389319834,0.13239542643222432,0.22986857096342475,0.1594390869139814,0.08386739095047818,0.06694030761715346,0.06069946289059413,0.097635904947867,Oak
398.1750854443102,10.879084917798265,0.2838600896145413,0.025889055288211407,0.8496768718149535,0.0006745572510391267,0.04443868001299823,0.057347615559866665,0.04546101888018521,0.11340332031244232,0.17683410644522254,0.1914469401040693,0.08719889322912232,0.07938639322912629,0.1065673828124458,0.09791564941401269,Oak
54.75972086761207,4.34044866874457,0.2930666323789473,0.023961519687030364,0.9805625969827622,0.0005782414448449346,0.013788859049472153,0.037780761718730786,0.03408813476560766,0.13902791341138762,0.30725097656234374,0.227035522460822,0.08466593424474861,0.050938924153619926,0.05327351888018124,0.052149454752577644,Oak
433.6151083850268,11.928643494130572,0.2485667654244135,0.024781415704719034,0.9077578220626888,0.0006181873320984283,0.05183919270830697,0.06372578938798842,0.04735310872393425,0.10991923014317326,0.1705220540363716,0.17693074544261833,0.0849304199218318,0.08010355631506343,0.10826619466140326,0.10640970865880005,Oak
327.81084174889577,11.634414800541407,0.12660642651876153,0.014005214753661595,0.881246149085312,0.00019654688431859816,0.07471699617332048,0.07340162627536391,0.056839923469274474,0.10780054209162189,0.18311543367310443,0.1277303890303577,0.07555404974474739,0.0748365752549529,0.08769132653043747,0.13831313775482637,TazeYaprak
381.4800586590148,12.13164471973925,0.12636101791852727,0.01303542324014487,0.9049860912681607,0.00017022637765087798,0.07782605229576325,0.0791812818875973,0.053710937499892954,0.1044124681120368,0.18074378188739487,0.11874202806098784,0.06861846301006733,0.07820471938759924,0.09373007015287442,0.144830197703793,TazeYaprak
380.19072370014214,12.636886276297247,0.11299552987840936,0.014930934889685056,0.876660224989193,0.00022331712466719286,0.08258928571412111,0.08950494260186244,0.06782126913251789,0.09960937499980148,0.13215481505075702,0.1043526785712206,0.07708864795903003,0.08695392219370425,0.10064572704061574,0.15927933673437644,TazeYaprak
328.01503142569106,11.215561198841511,0.12372127137518071,0.013073458517033737,0.9268745002125263,0.00017120223529937026,0.08504065688758562,0.08169244260187801,0.058254942601924715,0.0984534438773548,0.15722656249968664,0.10744180484672465,0.07003348214271757,0.08346619897942549,0.10285794005081542,0.1555325255098941,TazeYaprak
306.5229900076332,11.267335431252604,0.11626668116967324,0.013556771247236567,0.9108261785403444,0.00018421669052902257,0.07069116709169584,0.07700892857127509,0.063815369897832,0.12097417091812625,0.17087850765272067,0.12187101403036936,0.07389987244883231,0.07772640306106958,0.08579799107125757,0.13733657525482834,TazeYaprak
316.48925623307576,11.75035585731914,0.11464582933281171,0.01367239953563023,0.8910785045876985,0.00018734264220717243,0.07509566326515646,0.07760682397943716,0.0643136160713004,0.11613121811201345,0.16322544642824613,0.11728714923446013,0.07647082270392923,0.08103475765289972,0.08771125637737621,0.14112324617318814,TazeYaprak
387.0260447338974,13.000148079377041,0.10899674080316171,0.01383379509948873,0.815279225467019,0.00019177202016048902,0.0875318877549276,0.08133370535698076,0.057059151785600566,0.09897161989776193,0.16111288265274012,0.11154735331610421,0.06867825255088353,0.08207110969371398,0.0970583545916433,0.154635682397651,TazeYaprak
286.6751193028802,10.961678345741946,0.12212710306562961,0.01458258185746971,0.8889090593695665,0.00021305364879164998,0.07910156249984235,0.07971938775494317,0.06226084183661061,0.10790019132631556,0.15951849489764125,0.11712771045895023,0.07346141581618013,0.08089524872432857,0.09253427933655027,0.14748086734664484,TazeYaprak
252.48334371849947,9.674702804379063,0.14932270690469945,0.01653396954576393,0.9054222031525994,0.00027413117147505664,0.0625398596937529,0.06656568877537754,0.05594308035703136,0.12270806760179626,0.2068120216832613,0.13944913903033432,0.07617187499984819,0.06913663903047446,0.07882254464270005,0.12185108418343062,TazeYaprak
320.2234992678259,10.771915209005265,0.14160327444642298,0.014421363877733576,0.8990419486068972,0.000208650268474626,0.06473214285701384,0.07176737882638758,0.05383051658152537,0.11547353316303517,0.20735012755060717,0.13490513392830256,0.07419882015291335,0.07013313137741124,0.08117426658147087,0.12643494897933985,TazeYaprak
284.99777672216226,10.19790723309714,0.14577468187892423,0.014625704183073934,0.9186658979338014,0.00021441110558603174,0.06363600127538338,0.06987404336720768,0.053750797193770426,0.11931999362221117,0.20860570790774752,0.13634008290789154,0.07206632653046861,0.07041214923455355,0.08019770408147282,0.12579719387730032,TazeYaprak
450.41779024905486,15.559788316067287,0.0731864121245697,0.012708476768760813,0.7729728380494,0.0001617051611757251,0.09181680484675578,0.08535953443860539,0.07009327168353377,0.10427295918346566,0.12308673469363224,0.09779575892837652,0.0740593112243422,0.08689413265288805,0.10206074617326598,0.16456074617314143,TazeYaprak
367.3129331288129,13.718841500397563,0.08396384391029915,0.011996913866410223,0.8835851368452539,0.00014406129222826005,0.0941087372447104,0.08651546556105207,0.0670440051019072,0.09976881377531137,0.1290856186221917,0.09420838647940408,0.07286352040801805,0.08551897321411528,0.10570790816305463,0.16517857142824222,TazeYaprak
374.28270509646063,11.495148504000195,0.13974175760671675,0.013834820431626814,0.8978458865904985,0.00019197098657508437,0.06335698341824107,0.0668845663263973,0.05287388392846605,0.11957908163241474,0.21835140306078932,0.14245854591808343,0.06931600765292308,0.07045200892843102,0.07686941964270394,0.11985809948955704,TazeYaprak
314.70075516891524,11.205061096321762,0.13919865569591422,0.013934521724560542,0.9119748934220061,0.0001946798523292127,0.07003348214271757,0.07352120535699633,0.05470742984682975,0.10849808673447764,0.19602997448940523,0.13295200892830644,0.07019292091822746,0.07543447066311497,0.08545918367329906,0.13317123724463256,TazeYaprak
255.098370534375,10.164883489944826,0.1377759936547136,0.014611429001642437,0.9305898538126389,0.00021391396476653878,0.07491629464270784,0.07756696428555969,0.06044722576518565,0.10803970025488671,0.16848692602007237,0.11876195790792657,0.0759526466835221,0.07824457908147671,0.0927734374998151,0.14481026785685425,TazeYaprak
302.873935502755,10.969452400763066,0.12713390719260595,0.013975744908548039,0.9046783587125862,0.00019566616031283754,0.07643096301005176,0.07655054209168417,0.05743781887743655,0.10660475127529774,0.17910953443841854,0.12290736607118362,0.07073102678557332,0.07740752551004981,0.09048150510186048,0.142338966836451,TazeYaprak
269.7596463905845,10.277054178289944,0.1321547951955447,0.01527127241642739,0.9216106375393183,0.0002335820061318315,0.07690927933658141,0.07613201530597072,0.05970982142845243,0.10803970025488671,0.1729512117343492,0.11945950255078233,0.07358099489781254,0.07904177295902615,0.09129862882634865,0.14287707270379688,TazeYaprak
309.91632610804845,10.458524331341117,0.13585928359457156,0.014017589951378664,0.9228570862529202,0.000197121745986071,0.06849888392843491,0.07752710459168222,0.0586933992345769,0.11110889668345203,0.18947305484656116,0.1263950892854624,0.07581313775495095,0.07589285714270588,0.0840840242345263,0.13251355229565426,TazeYaprak
299.62098073792777,11.379995625397584,0.12627222178337724,0.013998696813993286,0.9033630622545787,0.0001962509109906679,0.07603236607127704,0.07292330994883425,0.05145886479581581,0.10309709821408024,0.20212850765265838,0.1274713010201541,0.06825972576517009,0.07352120535699633,0.088707748724313,0.13639987244870774,TazeYaprak
320.5461143370365,11.576720849325726,0.12155129835520864,0.013759196056716518,0.895692805144837,0.00018964009132567568,0.08434311224472986,0.08398437499983262,0.05670041454070332,0.09255420918348901,0.1619300063772283,0.11047114158141248,0.06897720025496457,0.08326690051003813,0.10062579719367701,0.1571468431119317,TazeYaprak
370.12539050942917,12.005267433418712,0.12347548895954882,0.013135972755060725,0.9203640501172714,0.00017272794349996326,0.08673469387737816,0.08133370535698076,0.05733816964274287,0.09422831632634282,0.1558713329078526,0.10959422831610811,0.07065130739781837,0.0825294961733049,0.1045719068875467,0.1571468431119317,TazeYaprak
290.6553628927785,11.604924516774611,0.11141629998411309,0.01522093401666158,0.8926389608136447,0.0002318653297037887,0.09179687499981705,0.08834901147941576,0.05743781887743655,0.08880739795900668,0.14092394770380076,0.10285794005081542,0.0716677295916939,0.08609693877533861,0.10660475127529774,0.16545758928538454,TazeYaprak
323.09803483093515,11.6223333593085,0.12533045476079607,0.01273959550451059,0.9212007213561791,0.0001625914851780515,0.08155293367330685,0.08394451530595515,0.05383051658152537,0.09189652423451072,0.1724131058670033,0.11433753188752722,0.07089046556108321,0.08051658163249259,0.09757653061205043,0.15304129464255214,TazeYaprak
274.92477327562466,10.48837410820293,0.1251334475076766,0.01599359743577569,0.9140395819711774,0.00025611082512430703,0.08793048469370231,0.08561862244880895,0.06078603316314416,0.09797512755082514,0.13781489158135798,0.10303730867326404,0.07421874999985208,0.08739237882635643,0.10451211734673048,0.1607142857139654,TazeYaprak
794.6828130790843,17.47290380828592,0.1135627940210196,0.015884069730141323,0.6058569057637964,0.0002527575703371308,0.10050621811204459,0.08964445153043359,0.058533960459067017,0.08577806122431884,0.11884167729568151,0.09420838647940408,0.06965481505088159,0.09213568239777556,0.1135403380099778,0.17715640943842242,TazeYaprak
295.35515107957036,11.319689323276002,0.12116708262519821,0.01354450423181099,0.927447730641233,0.0001837193574918329,0.076789700254949,0.07872289540800637,0.05582350127539895,0.1040736607140783,0.18034518494862017,0.11387914540793631,0.06752232142843685,0.07858338647943522,0.09673947704062352,0.14752072704052233,TazeYaprak
329.8661098286725,11.349092550374028,0.12433825002820381,0.013345296744497498,0.9048468845557394,0.00017842176484245462,0.07862324617331269,0.07810507015290556,0.05576371173458274,0.10116390306102287,0.18227838010167755,0.11650988520384943,0.07013313137741124,0.0786830357141289,0.09418845663246535,0.1445511798466507,TazeYaprak
354.801986566306,12.28484203579939,0.11102461638709386,0.01269583080039197,0.8947502189235959,0.00016143988640360575,0.08003826530596293,0.07802535076515062,0.05422911352030008,0.09759646045898916,0.19543207908124316,0.11670918367323678,0.0670440051019072,0.07688934948964268,0.09197624362226567,0.1420599489793087,TazeYaprak
420.6216650046933,14.084147552952563,0.08673675421726325,0.011413237876759547,0.8937428903065371,0.00013043386809148154,0.08296795280595709,0.08113440688759341,0.06373565051007705,0.10955436862223064,0.16077407525478163,0.10503029336713761,0.07198660714271367,0.08151307397942938,0.09530452806103455,0.14799904336705197,TazeYaprak
290.8587043113018,11.897708751074553,0.1033265037786385,0.014724556985857312,0.8712785318607386,0.00021705899341967864,0.09267378826512142,0.08994339923451462,0.06608737244884788,0.09532445790797328,0.12037627550996417,0.09620137117327766,0.076789700254949,0.09088010204063521,0.10445232780591428,0.16727120535680948,TazeYaprak
313.61423686470505,11.967012300419205,0.10676081618397196,0.013858807689316719,0.9202967860487651,0.00019224465943505398,0.08731265943860149,0.08512037627534055,0.06419403698966798,0.10158242984673632,0.14281728316298067,0.09982860331612757,0.0717275191325101,0.08527981505085044,0.1041334502548945,0.15800382653029735,TazeYaprak
292.28099971489064,11.218263703560057,0.12928865255970315,0.01477718140205595,0.8963757692123276,0.00021874671086470388,0.077845982142702,0.07818478954066051,0.058673469387638164,0.10795998086713178,0.16599569515273038,0.12017697704057681,0.07312260841822162,0.08195153061208157,0.09141820790798107,0.1446707589282831,TazeYaprak
315.43218269808676,12.15432846923275,0.11051510332015754,0.01484007185574392,0.8421896777498058,0.0002205155197486733,0.08308753188758951,0.08280851403044721,0.060427295918246915,0.10431281887734313,0.1605349170915168,0.10809948979570293,0.0716079400508777,0.0825294961733049,0.09530452806103455,0.15128746811194338,TazeYaprak
312.8649651647741,11.886043561461172,0.11954823226617449,0.013727666690837009,0.9020190611377957,0.0001887001077174283,0.09434789540797522,0.08368542729575158,0.052674585459078695,0.0903220663263506,0.14504942602011908,0.10487085459162773,0.06939572704067802,0.08478156887738206,0.108697385203865,0.16617506377517902,TazeYaprak
387.60358421664785,12.593651766683877,0.1322301457561778,0.01356691491208092,0.8811989237125437,0.00018438102752983506,0.08348612882636422,0.08005819515290166,0.05241549744887513,0.09574298469368674,0.16757015306089051,0.11367984693854895,0.06987404336720768,0.08240991709167249,0.1016222895406138,0.1531409438772458,TazeYaprak
304.264926302353,11.097722333620801,0.14081422987125858,0.013727301807173693,0.9214589097482593,0.00018888840750476727,0.07374043367332242,0.07852359693861902,0.0559630102039701,0.10632573341815545,0.18038504464249763,0.11714764030588898,0.0694355867345555,0.08177216198963294,0.09546396683654443,0.14124282525482054,TazeYaprak
304.5906722471661,10.067083862392598,0.17042015562646287,0.01497295502838895,0.9327380295707084,0.00022533279227404418,0.053033322703975934,0.0619220344386521,0.046755420918274164,0.11645009566303322,0.24970105229542072,0.1533601721935719,0.06706393494884594,0.0659877232141542,0.07521524234678888,0.11051100127528996,TazeYaprak
452.33166407017416,14.039899087879451,0.10324980088534033,0.012750533564975096,0.8618152095175693,0.0001627429906668656,0.08928571428553633,0.08595742984676746,0.05528539540805308,0.09183673469369452,0.15965800382621242,0.10138313137734896,0.06447305484681028,0.08292809311207962,0.10831871811202902,0.1608737244894753,TazeYaprak
542.5492344624208,15.386720287351956,0.10868600708558276,0.01192680737744944,0.8677603884782484,0.0001424792003176864,0.0954440369896057,0.08974410076512726,0.055644132652950325,0.08238998724473376,0.13763552295890938,0.09962930484674021,0.06293845663252763,0.08872767857125173,0.11533402423446401,0.172512755101697,TazeYaprak
481.711813722364,14.3571126712155,0.10123734376986554,0.011735297209214459,0.8751990297959283,0.00013790475772549829,0.08962452168349484,0.08635602678554218,0.054049744897851464,0.0893255739794138,0.15943877550988633,0.10483099489775026,0.06361607142844464,0.08322704081616066,0.10809948979570293,0.1614317602037599,TazeYaprak
561.2218633026953,16.014775754232573,0.09150906976941889,0.010737973987410707,0.8693309566076132,0.00011540633452192363,0.1035754145406099,0.09219547193859176,0.05446827168356491,0.07934072066310718,0.12920519770382413,0.09038185586716681,0.06540975765293086,0.09095982142839014,0.1143773915814047,0.1800860969384166,TazeYaprak
477.5039231159866,14.246740076753282,0.11202603108921755,0.011644157375618625,0.9032275711549322,0.00013579134524304603,0.08840880102023196,0.07950015943861706,0.051717952806019374,0.09034199617328934,0.17873086734658256,0.1106505102038611,0.06660554846925501,0.08171237244881674,0.09935028698959791,0.15298150510173592,TazeYaprak
519.819844360025,14.550598035999675,0.1065633368120572,0.011580378564784468,0.8737899503244109,0.00013427084201400992,0.09709821428552078,0.08797034438757978,0.05548469387744044,0.08316725127534445,0.1423788265303285,0.09665975765286858,0.06790098852027283,0.09000318877533083,0.10730229591815349,0.17203443877516733,TazeYaprak
446.2946461787304,14.099546371693275,0.10557488713522387,0.011739212603570005,0.8896626488002759,0.0001380358153424379,0.08745216836717265,0.08555883290799275,0.057059151785600566,0.0917171556120621,0.16001674107110966,0.10485092474468899,0.06776147959170169,0.08276865433656974,0.10269850127530553,0.16011639030580332,TazeYaprak
287.59965387400086,11.353205848916456,0.11392037498478477,0.013639830164743945,0.9101101193827075,0.00018633212728673372,0.07521524234678888,0.07663026147943912,0.060148278061104614,0.11146763392834927,0.18427136479555112,0.11842315050996806,0.06881776147945469,0.0765106823978067,0.0894850127549237,0.13903061224462088,TazeYaprak
370.5857781317718,12.886199181708882,0.10940373480943082,0.012145289206613376,0.9196088808202592,0.00014763567379724014,0.10433274872428186,0.08964445153043359,0.05255500637744628,0.0795200892855558,0.12834821428545848,0.09046157525492175,0.06044722576518565,0.09078045280594152,0.12079480229567763,0.18311543367310443,TazeYaprak
380.8120586121504,13.011814458473271,0.10812300919163984,0.011628839346067597,0.921939017689531,0.0001354462927517842,0.08713329081615287,0.08087531887738983,0.05058195153051143,0.09179687499981705,0.18271683673432973,0.1075813137752958,0.0643136160713004,0.0833067602039156,0.09905133928551688,0.15264269770377742,TazeYaprak
352.7030331629637,12.158840468913764,0.1291526660043091,0.013938200734310738,0.9374296468793141,0.00019450847352127493,0.09462691326511753,0.08187181122432663,0.04739317602031371,0.08336654974473182,0.16448102678538648,0.10740194515284718,0.06050701530600186,0.08508051658146308,0.10971380739774052,0.1655572385200782,TazeYaprak
345.6955940707759,10.208181221687186,0.21636270309812136,0.021652134063355432,0.8999515954689171,0.00047050462633103907,0.06792091836721158,0.07142857142842907,0.04944595025500349,0.10226004464265334,0.16609534438742407,0.14271763392828699,0.0760124362243383,0.08077566964269615,0.10411352040795577,0.13922991071400823,TazeYaprak
531.1252462902792,15.489988370900557,0.09610411493929101,0.01212281092550943,0.8247777866991629,0.00014710910440828684,0.10528938137734117,0.0898238201528822,0.0522361288264265,0.08478156887738206,0.12444196428546628,0.09016262755084072,0.06265943877538532,0.09253427933655027,0.11625079719364587,0.18181999362208662,TazeYaprak
346.31356851457554,11.354920589237668,0.16196836249993693,0.014050359606571316,0.9302241897297092,0.0001981830901204285,0.07065130739781837,0.0678810586733341,0.04430404974480966,0.10172193877530747,0.2192881058669099,0.13558274872421958,0.06477200255089131,0.07282366071414058,0.09058115433655417,0.13239397321402185,TazeYaprak
523.003716886622,15.470758968970628,0.08604052212428481,0.0112687059616483,0.8521398985215819,0.00012710497320209368,0.09560347576511559,0.08645567602023586,0.05662069515294838,0.09058115433655417,0.14925462372419232,0.09303252551001867,0.0608059630100829,0.08747209821411138,0.1106505102038611,0.16952327806088663,TazeYaprak
377.1484155506927,11.826276072564587,0.1443768934634247,0.015756965272306522,0.919042657014646,0.0002491646700504471,0.07409917091821967,0.07312260841822162,0.05361128826519927,0.11387914540793631,0.1834741709180017,0.12103396045894245,0.06975446428557526,0.07591278698964463,0.09578284438756421,0.13932955994870191,TazeYaprak
510.1188404770076,14.729033706440333,0.10116768273633264,0.011304660616285654,0.8923244578911841,0.00012793735689229117,0.10080516581612563,0.08878746811206795,0.056839923469274474,0.08282844387738594,0.12856744260178457,0.09099968112226761,0.06186224489783589,0.09412866709164913,0.11573262117323874,0.17944834183637706,TazeYaprak
335.9939311245613,12.229926110232832,0.10823546777610764,0.012892902466384118,0.911533751635874,0.00016635638203301863,0.1051897321426475,0.09215561224471429,0.053132971938669615,0.07395966198964851,0.12478077168342479,0.08810985331615093,0.0619220344386521,0.09205596301002061,0.12199059311200178,0.18670280612207688,TazeYaprak
608.4959578235726,16.720926394273157,0.08136323286262404,0.010259201022772398,0.8568324436605059,0.00010542305516818759,0.09406887755083293,0.08047672193861512,0.05275430484683363,0.09624123086715514,0.17442602040781563,0.10144292091816517,0.056959502550906885,0.08314732142840571,0.10166214923449127,0.15882095025478551,TazeYaprak
593.7327375760947,16.37034398314065,0.09681466568718507,0.011100258188730592,0.8324124746029015,0.0001234134809779619,0.08388472576513895,0.0735610650508738,0.04958545918357465,0.10016741071408608,0.2043008609689806,0.11367984693854895,0.05823501275498598,0.07641103316311301,0.0962213010202164,0.14395328443848862,TazeYaprak
319.7030750866192,11.483601387377723,0.14247832028595742,0.01363126815051903,0.9364788389425487,0.00018642745382010413,0.06672512755088743,0.07332190688760896,0.05600286989784757,0.10797991071407051,0.1947943239792036,0.1336894132650397,0.07039221938761481,0.07770647321413085,0.08607700892839988,0.1333107461732037,TazeYaprak
535.4708155479797,14.933495325918347,0.11221821548243638,0.012309541505793326,0.8586464773171636,0.0001517041131944824,0.09745695153041802,0.08502072704064688,0.04966517857132959,0.09026227678553439,0.14648437499970807,0.0986726721936809,0.058952487244780465,0.08615672831615483,0.11804448341813209,0.1692841198976218,TazeYaprak
470.0804210382986,13.993316476195385,0.105120216281768,0.012071676490756855,0.8654098023402412,0.00014604403530787334,0.07152822066312275,0.07017299107128872,0.055185746173359404,0.11874202806098784,0.21057876275468235,0.11597177933650356,0.06756218112231432,0.0716677295916939,0.08601721938758367,0.1325733418364705,TazeYaprak
337.85154194216045,10.895859509435184,0.14983373289597052,0.014101614250636232,0.9196740227941655,0.0001992721921010597,0.07607222576515452,0.07541454081617623,0.051379145408060864,0.10092474489775805,0.19048947704043667,0.12049585459159659,0.06831951530598629,0.0797991071426981,0.09448740433654639,0.14261798469359332,TazeYaprak
430.11304078373695,15.109938433273793,0.0796132633298119,0.011661914031164247,0.8632042367922967,0.00013607306523385563,0.1168287627548692,0.10628587372427797,0.05554448341825665,0.06337691326517982,0.07963966836718822,0.06967474489782033,0.05861367984682196,0.10259885204061185,0.13801419005074533,0.20942283163223568,TazeYaprak
85.26862104952781,5.920032565415423,0.202427317439004,0.017210025042215527,0.9783336827068885,0.00029753826133033343,0.05007506882016837,0.076740794646959,0.0665828412344027,0.12825942922758382,0.15822064508742278,0.13502724184855383,0.09422086272749212,0.07805258614777426,0.08495925766600057,0.12786127259361418,TazeYaprak
634.6901437936802,16.92062990336386,0.09954544796488346,0.011324665828684926,0.8192157575252905,0.0001283734550115564,0.10540896045897359,0.09131855867328739,0.05259486607132375,0.08025749362228903,0.12960379464259883,0.08529974489778919,0.058673469387638164,0.09211575255083682,0.1235650510201619,0.18116230867310834,TazeYaprak
521.3119423795025,14.266104787952308,0.14432268090389627,0.013699828029268273,0.9046359639851649,0.00018812129987474043,0.09779575892837652,0.08775111607125369,0.049485809948880966,0.08284837372432467,0.1284080038262747,0.10046635841816712,0.06622688137741903,0.09255420918348901,0.11776546556098978,0.17669802295883152,TazeYaprak
261.7506813042829,10.451145768099767,0.14417997375948383,0.013879320129689995,0.934436574386088,0.00019321456766721213,0.05771683673457885,0.0651506696427273,0.05560427295907285,0.11786511479568346,0.23335857780565736,0.1409438775507395,0.06919642857129066,0.06638632015292892,0.07663026147943912,0.11714764030588898,TazeYaprak
280.52257777332846,10.281052456098898,0.15309986447980892,0.013621624080961105,0.9440827600333315,0.0001860238689549941,0.06066645408151174,0.06267936862232407,0.0473333864794975,0.11441725127528217,0.2470703124995076,0.13711734693850225,0.0645926339284427,0.06656568877537754,0.08073580994881868,0.11882174744874278,TazeYaprak
415.0580360285074,13.022191034336238,0.11549112508130227,0.012972923608237213,0.8788554538635092,0.00016856100966686655,0.07878268494882258,0.07453762755087186,0.055365114795808024,0.10935507015284328,0.18909438775472517,0.1159917091834423,0.06550940688762454,0.07607222576515452,0.09297273596920246,0.1423190369895123,TazeYaprak
451.4829467679323,14.044067057740317,0.10121899885189219,0.01255505588755158,0.8691507463760326,0.0001578739111568667,0.09638073979572628,0.0894850127549237,0.05676020408151953,0.08990353954063715,0.1370376275507473,0.09426817602022029,0.06527024872435971,0.0892657844385976,0.11118861607120697,0.17044005102006848,TazeYaprak
317.2550802357761,12.211508765905169,0.1100697024457419,0.01228352982356723,0.9102719874143417,0.00015117605527754848,0.0826889349488148,0.07866310586719016,0.059729751275391166,0.09731744260184687,0.17675781249964773,0.11200573979569514,0.06592793367333799,0.08266900510187605,0.0954440369896057,0.14879623724460142,TazeYaprak
16.394986426777965,1.0770675401792775,0.7771619769443645,0.10556553021969464,0.9964056499291674,0.011164876689642573,0.005279947916664948,0.015397135416661654,0.0059407552083314,0.044674479166652126,0.06231445312497971,0.18416015624994006,0.030302734374990137,0.03297851562498926,0.5962858072914725,0.02266601562499262,TazeYaprak
21.71783768192229,1.0425782470911356,0.8008171257148016,0.11215400038844847,0.9952574724140605,0.012601773541160186,0.0052962239583316095,0.013824869791662166,0.005192057291664977,0.042174479166652935,0.047753906249984455,0.17413411458327666,0.025403645833325064,0.03235351562498947,0.632705078124794,0.02116210937499311,TazeYaprak
23.513143176781185,1.276432190420268,0.7630912325498724,0.10247546912560622,0.9957656882393537,0.010517240697401274,0.00682942708333111,0.01770833333332757,0.007405598958330923,0.04638346354165157,0.0629980468749795,0.17679687499994245,0.030491536458323407,0.03526367187498852,0.5900748697914746,0.026048177083324853,TazeYaprak
13.978922362632414,1.0037174536383136,0.7780638713948022,0.11551414146931958,0.9973377490516848,0.013364257867280713,0.004527994791665193,0.013792317708328844,0.006474609374997892,0.047770182291651114,0.06206380208331313,0.18753580729160563,0.03122395833332317,0.03241861979165611,0.592968749999807,0.021223958333326423,TazeYaprak
17.24445854916589,1.047706818721957,0.7891568645605233,0.11626647105019546,0.9958988770320852,0.013539912463393467,0.004944661458331724,0.014628906249995239,0.005794270833331447,0.04213216145831962,0.05778971354164786,0.17534505208327625,0.027337239583324433,0.030914713541656605,0.6196679687497982,0.02144531249999302,TazeYaprak
17.823950386345004,1.0693824148910758,0.7848789026432852,0.10714507560563723,0.9959828997328277,0.011504505405869187,0.005074869791665015,0.014244791666662029,0.0058919270833314155,0.043014322916652664,0.060768229166646884,0.1793131510416083,0.02823242187499081,0.03102213541665657,0.6112467447914677,0.021191406249993102,TazeYaprak
12.497040415686712,0.9246969879738677,0.7946443223752374,0.11377208096675732,0.9969341012373678,0.012966657181117138,0.004368489583331911,0.013287760416662341,0.005647786458331495,0.04585286458331841,0.053225911458316004,0.1820572916666074,0.028339843749990774,0.03313151041665588,0.6145377604164666,0.019550781249993637,TazeYaprak
16.898753028286265,1.5452771799137954,0.6615662951414896,0.07703064407490337,0.9963262606903636,0.005951068305636753,0.008170572916664008,0.022985026041659185,0.013567708333328916,0.07151367187497672,0.10588216145829886,0.20811523437493226,0.045019531249985346,0.045172526041651964,0.4445898437498553,0.034983723958321944,TazeYaprak
15.592746290503328,1.0114006076005657,0.8084689953012105,0.17862806956461064,0.9975337498122511,0.03193820426317403,0.0058496093749980955,0.013492838541662274,0.006917317708331081,0.03856445312498745,0.04783528645831776,0.14782877604161854,0.0242675781249921,0.027119140624991173,0.6689453124997823,0.019179687499993756,TazeYaprak
12.874823973865338,0.8209882372673659,0.8305599322930202,0.16407029456334815,0.9977141321212105,0.026947901425596263,0.002604166666665819,0.00933268229166363,0.003968098958332042,0.03663736979165474,0.0497558593749838,0.15836588541661512,0.023069661458325823,0.02512369791665849,0.677643229166446,0.013499348958328938,TazeYaprak
15.746688645887003,1.1381005427110207,0.7798005124897227,0.15666407885753825,0.9976637944989899,0.02457459129838976,0.006057942708331362,0.016285807291661365,0.007363281249997603,0.04369140624998578,0.061168619791646756,0.15709635416661552,0.02703450520832453,0.03247070312498943,0.6259667968747963,0.022864583333325892,TazeYaprak
18.749747800877607,0.9900549673227519,0.8413238725831849,0.42596533359412847,0.9970441721718986,0.18145189473310766,0.0049023437499984045,0.012233072916662684,0.005764973958331456,0.03171549479165634,0.043069661458319315,0.10444661458329933,0.01879882812499388,0.024156901041658803,0.7373274739580933,0.017584635416660943,TazeYaprak
51.15786273477873,2.710311815863915,0.5971058697611075,0.06599089913324424,0.9960391271959401,0.004386116382853318,0.00950520833333024,0.028811848958323956,0.014892578124995151,0.07094401041664357,0.13711914062495537,0.22883789062492552,0.045312499999985247,0.049518229166650544,0.37902994791654326,0.036028645833321604,TazeYaprak
26.986098514447498,0.9231648091279571,0.8211724457887587,0.10018020965925564,0.9963970721414037,0.010074722651497899,0.002197265624999285,0.010253906249996662,0.0023958333333325534,0.032307942708322816,0.04434244791665223,0.20898111979159864,0.022307942708326072,0.024378255208325397,0.6383105468747922,0.014524739583328606,TazeYaprak
28.349054071538113,0.9749111252753525,0.8154255355565807,0.09956520795548149,0.9955182270920078,0.009953068477142269,0.0032226562499989508,0.012675781249995874,0.0036653645833321404,0.031962890624989596,0.038326822916654193,0.20741861979159915,0.02281901041665924,0.025735677083324957,0.6372460937497926,0.016927083333327823,TazeYaprak
32.42834278429498,1.2671192293324742,0.7763584936662139,0.11948309364432065,0.9961133281476077,0.014313204514579243,0.006572265624997861,0.01881184895832721,0.006435546874997905,0.03639322916665482,0.05360351562498255,0.183238932291607,0.02759114583332435,0.0325585937499894,0.6074609374998022,0.027333984374991103,TazeYaprak
25.76067301561286,1.3472740569490096,0.7334655887209405,0.11500669560280347,0.9974424868249597,0.013256329910060753,0.006617838541664513,0.022011718749992835,0.007630208333330849,0.04611002604165166,0.07682291666664166,0.18832682291660535,0.034980468749988614,0.03779622395832103,0.5463444010414888,0.03335937499998914,TazeYaprak
22.31078946763025,1.3640295549489878,0.7070852015920618,0.10364473591143353,0.9980717168358606,0.01076471422949278,0.004957682291665053,0.02315104166665913,0.007067057291664366,0.05200195312498307,0.09741536458330162,0.20200520833326757,0.04050781249998681,0.041272786458319895,0.49678385416650495,0.034837239583321994,TazeYaprak
21.245445924819343,1.2480426911436062,0.7282685062534302,0.08709318739519509,0.9981604021338237,0.00761204475095093,0.005338541666664929,0.02193684895832619,0.006933593749997743,0.04912109374998401,0.08142578124997349,0.20525716145826653,0.0371777343749879,0.04016276041665359,0.5210807291664971,0.03156575520832306,TazeYaprak
25.422116430422975,1.0675101699828755,0.7950710220599948,0.11982849828973309,0.9937622242058741,0.01439760323569406,0.004807942708331768,0.017972005208327483,0.005159505208331654,0.035960286458321625,0.043072916666652646,0.19506184895826983,0.027063802083324522,0.03360677083332239,0.6131184895831338,0.024176432291658796,TazeYaprak
23.6342430772843,1.0330410551216698,0.7968264123705617,0.12061307859328585,0.9939676654525652,0.014590305085202664,0.0045410156249985215,0.016484374999994635,0.005429687499998233,0.036575520833321426,0.041070963541653294,0.19984374999993496,0.026396484374991407,0.031907552083322945,0.6141927083331334,0.023557942708325664,TazeYaprak
23.46332259296669,1.1660677719738466,0.7673261102106833,0.10866369639672038,0.9943610368592657,0.011843418811560872,0.006123046874998006,0.020563151041659972,0.006191406249997985,0.039667968749987084,0.05116861979165001,0.2045703124999334,0.030237630208323492,0.036302083333321515,0.576471354166479,0.028704427083323988,TazeYaprak
21.07346284476872,1.2260221916339444,0.7327051095811584,0.08963367442725487,0.9980700494108847,0.00806159829703703,0.005162760416664986,0.021263020833326412,0.0068457031249977715,0.04896809895831739,0.07953124999997412,0.20270833333326735,0.03685221354165467,0.039443359374987164,0.5283463541664947,0.030878906249989947,TazeYaprak
21.33937692521152,1.3928624685608497,0.7134248546465713,0.08307597344808018,0.9964308036673101,0.006931837028722034,0.008167317708330674,0.023453776041659033,0.008968098958330414,0.05103841145831672,0.07021809895831048,0.21805989583326235,0.035110677083321905,0.042314453124986225,0.5073111979165015,0.03535807291665516,TazeYaprak
19.10490711949332,1.4680334974647211,0.6857892848497668,0.08347484850825101,0.9973792132851076,0.006994910539896601,0.008492838541663902,0.029495442708323733,0.01032226562499664,0.05394531249998244,0.09075195312497046,0.1951790364582698,0.03920247395832057,0.04725260416665129,0.4838606770831758,0.04149739583331982,TazeYaprak
19.69490540034745,1.5304442169039234,0.6730066775281434,0.07848365971543751,0.997621063911293,0.006184983923515524,0.008242187499997318,0.03221679687498951,0.01129557291666299,0.057057291666648094,0.0960514322916354,0.19097005208327117,0.041627604166653114,0.05150390624998324,0.46673828124984806,0.04429687499998558,TazeYaprak
24.484628671873427,1.7570408841430396,0.6583253233540308,0.09527574716719345,0.998314095304199,0.009086131417101302,0.007314453124997619,0.028339843749990774,0.01153971354166291,0.05563151041664856,0.11902669270829459,0.19027669270827138,0.04213541666665295,0.04338867187498588,0.46368815104151573,0.03865885416665408,TazeYaprak
33.83894109583955,2.1216228851081347,0.6075716496007415,0.09840640432380088,0.997846061691207,0.009693358306732472,0.010110677083330043,0.03478841145832201,0.014003906249995441,0.06483072916664556,0.12923177083329127,0.19849609374993538,0.04890950520831741,0.05080078124998346,0.3985286458332036,0.05029947916665029,TazeYaprak
26.987448950996267,1.3776780352362044,0.7279309044144171,0.08850000855217949,0.9979771632885185,0.007866439230840957,0.004580078124998509,0.01835286458332736,0.005628255208331501,0.05234700520831629,0.08381510416663938,0.2240071614582604,0.03578776041665502,0.04171549479165309,0.5056933593748354,0.028072916666657528,TazeYaprak
27.480434219889023,1.0011816010303956,0.8376940379233275,0.4017281112782145,0.9966337888717202,0.1613890229768815,0.002972005208332366,0.012532552083329254,0.0032226562499989508,0.025781249999991606,0.05357747395831589,0.12927083333329126,0.019879557291660195,0.024059244791658836,0.7123014322914348,0.016402994791661327,TazeYaprak
27.059308218248102,0.9288582243479795,0.8498432645212303,0.4119330046470334,0.9964476026951637,0.16969681531079617,0.0022526041666659333,0.010498046874996583,0.0029459635416657077,0.024694010416658627,0.05038736979165027,0.125908203124959,0.018007812499994138,0.021191406249993102,0.7291861979164292,0.014928385416661806,TazeYaprak
31.19534460827795,1.1067721959049164,0.8094150019323941,0.1410832563894823,0.9958337211391647,0.019941640510909894,0.004674479166665145,0.01497395833332846,0.004733072916665126,0.03149739583332308,0.04981770833331712,0.1673111979166122,0.02294921874999253,0.027623697916657676,0.6554850260414533,0.020934244791659853,TazeYaprak
29.763829236495937,1.1795825028579683,0.7836995049218606,0.13002368659128552,0.9966049339221033,0.01694231207139254,0.004772135416665113,0.018212890624994073,0.005250651041664957,0.03620117187498822,0.06120768229164674,0.17613932291660933,0.027252604166657795,0.032246093749989505,0.6141796874998001,0.02453776041665868,TazeYaprak
23.405936743375342,1.2537262046409783,0.7369591378054652,0.10278317346080479,0.9980302395509278,0.010596375070128247,0.004153645833331982,0.017444661458327654,0.005390624999998245,0.049371744791650594,0.08696614583330502,0.20934570312493186,0.035260416666655185,0.03659505208332142,0.5282649739581614,0.027207031249991142,TazeYaprak
26.976116061034013,1.9710927660384852,0.627558490887477,0.21117545937546894,0.998116877235979,0.04460131593349669,0.009501953124996907,0.032812499999989315,0.01483072916666184,0.06217122395831309,0.13414388020828966,0.16023763020828116,0.047063802083318014,0.0453483072916519,0.4477180989581876,0.04617187499998497,TazeYaprak
23.398780878261935,1.875211353026761,0.6305882143507066,0.19603820340056302,0.9984290776864638,0.038435482851573846,0.006513671874997879,0.02899088541665723,0.01291341145832913,0.06033203124998036,0.14882486979161821,0.17333007812494358,0.04421549479165227,0.04290039062498603,0.4422591145831894,0.039720052083320405,TazeYaprak
27.969768315342915,2.2263128596881288,0.5722522724998345,0.05738282261700234,0.9974273214707882,0.0033194362983685016,0.0071614583333310024,0.026582031249991346,0.01305664062499575,0.0761523437499752,0.17507161458327633,0.23282552083325755,0.05033528645831695,0.04860677083331751,0.3325455729165584,0.03766276041665441,TazeYaprak
27.672530233606025,1.3973425237280683,0.7274484818839875,0.11014055559871827,0.9972381175639933,0.01216531754266353,0.006523437499997876,0.02038736979166003,0.007848307291664112,0.048730468749984136,0.0856022135416388,0.19218749999993745,0.034355468749988814,0.03955403645832046,0.5350162760414925,0.0297949218749903,TazeYaprak
26.77990128931893,1.128431885762347,0.7841369227130609,0.12785306209743447,0.9959208471740402,0.016387372024259456,0.004248046874998617,0.015478515624994962,0.005081380208331679,0.037288411458321194,0.06211588541664645,0.188372395833272,0.024817708333325254,0.03152343749998974,0.6095214843748016,0.021552734374992985,TazeYaprak
25.8622914644279,1.1066611184518451,0.7781462666175405,0.11648149901452048,0.9962330323923175,0.013603446632429178,0.003792317708332099,0.014759114583328528,0.005065104166665018,0.04038736979165352,0.061510416666646646,0.20373046874993367,0.026012369791658198,0.0316406249999897,0.5925065104164738,0.020595703124993297,TazeYaprak
26.906117169469862,1.1011797509448191,0.7888655477799313,0.13685269771156963,0.9961911375509886,0.018762547371770383,0.004095052083332,0.01599283854166146,0.005478515624998217,0.03360351562498906,0.05994140624998049,0.18021809895827468,0.023756510416658935,0.028483072916657394,0.6268391927081293,0.02159179687499297,TazeYaprak
24.59977209574804,1.4383744966099838,0.7067830192826778,0.1032913722823186,0.9977980876865121,0.010701585100834942,0.007174479166664331,0.02272135416665927,0.00915039062499702,0.05490885416664879,0.09035156249997059,0.19573893229160294,0.0377929687499877,0.04121744791665325,0.506738281249835,0.034205729166655534,TazeYaprak
29.929917261140865,2.3912541720299116,0.5406027584647313,0.054112081281638046,0.9977504799111955,0.002953861172935749,0.007021484374997714,0.030520833333323397,0.013382161458328977,0.08155924479164012,0.19365234374993695,0.2389453124999222,0.053678385416649196,0.05390299479164912,0.2875716145832397,0.03976562499998706,TazeYaprak
36.2009218122578,2.7766386432088304,0.541518557879124,0.232284628133334,0.9968899182651408,0.05395942881955592,0.012809244791662497,0.04611328124998499,0.019970703124993498,0.06726236979164477,0.167916666666612,0.14319661458328672,0.050830078124983455,0.05624023437498169,0.37982096354154304,0.05583984374998182,TazeYaprak
25.549366711327192,2.110540830848289,0.6227789047185576,0.0785192277922847,0.9969642961392966,0.006180495622619447,0.01236979166666264,0.04103515624998664,0.014811197916661845,0.06008138020831377,0.10917968749996446,0.17128906249994424,0.04146158854165317,0.0576432291666479,0.442392578124856,0.04973632812498381,TazeYaprak
33.000327542143424,2.421273825562727,0.5874903211549307,0.07165314519145059,0.9962776480836342,0.005152880030734878,0.01592447916666148,0.04325195312498592,0.01773763020832756,0.06722656249997812,0.11212565104163016,0.17785481770827544,0.04611002604165166,0.05853841145831428,0.4046419270832016,0.05658854166664824,TazeYaprak
25.71414728743486,1.5548273263109467,0.7038883776591622,0.09150197787726598,0.9962928222796663,0.008406570893544203,0.00906249999999705,0.026595052083324675,0.009414062499996935,0.05215494791664969,0.07889322916664099,0.19639322916660273,0.03633789062498817,0.04497070312498536,0.5070996093748349,0.03907877604165395,TazeYaprak
24.199886214418704,1.191967809889327,0.7741053985744304,0.10609633490847031,0.9951609124009926,0.011297519659727702,0.006171874999997991,0.019765624999993566,0.0061686197916646585,0.041451822916653176,0.05283528645831614,0.1875553385416056,0.027854817708324264,0.03742513020832115,0.5939843749998066,0.02678710937499128,TazeYaprak
23.372717809905517,1.0644973237101598,0.8030252170740931,0.1289887538342212,0.9950517503259453,0.01667866582283488,0.004511718749998532,0.01660481770832793,0.005384114583331581,0.03576171874998836,0.04785807291665109,0.17213541666661064,0.02460937499999199,0.03281575520832265,0.6382259114581256,0.022093098958326143,TazeYaprak
21.351706011592196,0.9999432624826349,0.8135534550256591,0.14236145737820882,0.9951122662029007,0.02031533210420482,0.004160156249998646,0.014436848958328634,0.004817708333331765,0.03355794270832241,0.04456054687498549,0.17234700520827723,0.02280598958332591,0.028111979166657516,0.6544986979164537,0.02070312499999326,TazeYaprak
23.062718576399835,1.1623836049865968,0.7934379853730839,0.14294178126346985,0.9953327314292361,0.020476051979918093,0.005882161458331418,0.018577473958327286,0.005839843749998099,0.03171223958332301,0.05295247395831609,0.16543619791661282,0.022841796874992566,0.030970052083323252,0.6420735677081243,0.023714192708325615,TazeYaprak
22.592545323734903,1.2711288293069818,0.7681998680823956,0.12580948221140534,0.9959071812751991,0.015864874474614623,0.006852213541664436,0.020882161458326536,0.0068066406249977845,0.037402343749987826,0.06137695312498002,0.17076822916661108,0.02654296874999136,0.03555013020832176,0.606194661458136,0.027623697916657676,TazeYaprak
18.48864640856585,1.3174191563228732,0.7231932830395013,0.10398004677800805,0.9974964585165689,0.010849175071977003,0.0059733072916647225,0.022376302083326048,0.006969401041664398,0.04952799479165054,0.08142578124997349,0.199628906249935,0.034274088541655506,0.04067708333332009,0.525302734374829,0.03384440104165565,TazeYaprak
30.242168870671904,2.1317968834230108,0.6132643639334794,0.062253680159763146,0.9973107046188853,0.0039018572569805322,0.005996093749998048,0.02770507812499098,0.010546874999996566,0.07202799479164322,0.14903971354161816,0.2246093749999269,0.04317382812498594,0.05319661458331602,0.37903971354154326,0.03466471354165538,TazeYaprak
25.853392745966424,1.9403284805023149,0.6290284089398144,0.06850582981673597,0.9975898491203231,0.004728262906209534,0.0052246093749983,0.025504557291658365,0.009739583333330163,0.06898111979164422,0.14253255208328694,0.22945963541659198,0.042242838541652915,0.051175130208316676,0.39062825520820615,0.03451171874998876,TazeYaprak
33.34394257438183,2.1389220283499335,0.6117905089735216,0.06815579119151033,0.9967687989124011,0.0046902125632569324,0.007457682291664239,0.028339843749990774,0.01182617187499615,0.07891601562497431,0.1307877604166241,0.23339192708325737,0.046500651041651526,0.055084635416648736,0.3685319010415467,0.039163411458320585,TazeYaprak
24.155218746392194,1.3381018823108175,0.735506418835993,0.09957615586955312,0.9964848373323333,0.009959986928002327,0.006110026041664678,0.02203450520832616,0.007167968749997667,0.05052734374998355,0.07275390624997631,0.20229817708326747,0.03447591145832211,0.042639973958319456,0.5303938802081607,0.03159830729165638,TazeYaprak
22.34662449313764,1.1213393961857905,0.7827178238633313,0.12778855167526465,0.9952463817665049,0.016372055482693333,0.005156249999998322,0.0192545572916604,0.005875651041664754,0.040279947916653555,0.053499348958315915,0.17797200520827539,0.028157552083324166,0.03625651041665486,0.6065983072914692,0.026949869791657893,TazeYaprak
22.27092085016481,1.079362915269929,0.7983640959666685,0.14176900029109812,0.9942743651929604,0.020141789798804995,0.004954427083331721,0.0178222656249942,0.005914713541664741,0.03421549479165553,0.04725260416665129,0.16832356770827853,0.02406901041665883,0.031562499999989724,0.6405045572914582,0.025380859374991738,TazeYaprak
21.068633279125773,1.2253452781221337,0.7618601149037243,0.12363482590931565,0.9954187669467808,0.015315713082227633,0.006451822916664567,0.022154947916659454,0.007027994791664379,0.039996744791653646,0.06587565104164522,0.1704785156249445,0.028551432291657373,0.03802083333332096,0.5909472656248076,0.03049479166665674,TazeYaprak
16.14256962243384,1.4064613419664016,0.6902160327569216,0.09244306831694164,0.9975166144026038,0.008574344889670954,0.00730143229166429,0.027281901041657786,0.009039713541663724,0.05654947916664826,0.0915624999999702,0.2012923177082678,0.03924804687498722,0.048313802083317606,0.47885416666651076,0.040556640624986796,TazeYaprak
15.215916629043425,1.5137588022213029,0.6475769337417124,0.07541288370283991,0.9976478888051785,0.005715172723670977,0.007031249999997711,0.032034505208322905,0.009853515624996792,0.06341471354164602,0.10886718749996456,0.21559244791659649,0.04666666666665147,0.05414388020831571,0.41536458333319815,0.04703124999998469,TazeYaprak
49.22051555167708,2.9710689012535125,0.5780167143074305,0.07658997993915528,0.9957468507398567,0.005901301482351881,0.012861328124995814,0.038395182291654166,0.0164811197916613,0.06792968749997788,0.13689453124995543,0.1959765624999362,0.04458658854165215,0.0555957031249819,0.3866406249998741,0.04463867187498547,TazeYaprak
48.18605281746217,2.678250117939155,0.5892462359255785,0.07461072116817064,0.9961731681911347,0.005607861774994217,0.009404296874996939,0.03298502604165593,0.014189453124995382,0.06999674479164388,0.13868815104162152,0.22502929687492676,0.045719401041651786,0.05297851562498276,0.37070638020821267,0.04030273437498688,TazeYaprak
43.806743735896205,2.5618697414858733,0.6183985686539414,0.07019220157888799,0.9961083083253592,0.004964222919298428,0.0107519531249965,0.03347981770832244,0.01318684895832904,0.06535807291664539,0.11471354166662932,0.21722656249992928,0.041988932291653,0.05372070312498251,0.4087662760415336,0.04080729166665338,TazeYaprak
37.67310948948439,2.0050117567428893,0.6637788907856774,0.06784963704607819,0.9963072353597837,0.0046554790550784085,0.007789713541664131,0.025761718749991613,0.009879557291663451,0.06486979166664555,0.09436197916663595,0.2436621093749207,0.040481770833320156,0.05152343749998323,0.4275097656248608,0.03416015624998888,TazeYaprak
20.488940405838402,1.2398620675062562,0.7573298277585709,0.1260411521883634,0.9981765713112367,0.015901230537118456,0.005830078124998102,0.01678059895832787,0.008007812499997394,0.04948893229165056,0.08121419270830689,0.1582747395832818,0.03387695312498897,0.035875651041654986,0.585904947916476,0.024746093749991944,TazeYaprak
20.412660325292876,1.2639592631831789,0.7359338028479984,0.11816869143535892,0.9982891760089752,0.014001308331281121,0.0042285156249986236,0.014000651041662109,0.006676432291664493,0.06439453124997904,0.08796549479163804,0.20723958333326586,0.03746744791665447,0.04280924479165273,0.5147819010414991,0.020436197916660015,TazeYaprak
26.53573735128399,1.3886139250788712,0.7537694826007028,0.1202523195184343,0.9969247924934632,0.014479762637649732,0.009485677083330245,0.021012369791659827,0.009690755208330178,0.04439453124998555,0.061324869791646704,0.15797851562494858,0.03150390624998974,0.03628906249998819,0.5970214843748056,0.03129882812498981,TazeYaprak
42.181946609753545,2.053073298850308,0.6607496632721417,0.0709060168973572,0.9958762511883846,0.005071368373362259,0.009355468749996954,0.026468098958324717,0.010247395833329998,0.06113606770831343,0.08682942708330507,0.24870117187491905,0.0417675781249864,0.048668619791650825,0.4295410156248602,0.037285156249987864,TazeYaprak
18.887803547610243,1.0962064933383335,0.7786633479161128,0.12452572525951211,0.9967304199134104,0.0155329824420601,0.007210286458330986,0.017099609374994433,0.0072395833333309765,0.05282877604164947,0.0437337239583191,0.1805240885416079,0.029892578124990268,0.04453776041665217,0.5922949218748071,0.02463867187499198,TazeYaprak
27.368776585673032,1.1089820871728182,0.7989453102463409,0.14234176630457215,0.9948619156405423,0.020326793954594878,0.005865885416664757,0.01597330729166147,0.005911458333331409,0.03484700520832199,0.03941406249998717,0.18532226562493967,0.023606770833325647,0.031018880208323236,0.6350227864581266,0.023017578124992506,TazeYaprak
21.128863304532466,1.2323467310668406,0.7277846915270445,0.0794948881408147,0.9977817319125754,0.0063459135219540806,0.006839192708331107,0.020527343749993317,0.007744140624997479,0.05145182291664992,0.07323893229164283,0.2189843749999287,0.03674804687498804,0.04054036458332014,0.5134407552081662,0.030485026041656742,TazeYaprak
20.21828918745845,1.3614573051298913,0.6928584268244111,0.07177671791198398,0.9979451813535789,0.005177981098259949,0.006897786458331088,0.024990234374991864,0.009661458333330188,0.05874023437498088,0.09073242187497046,0.21898111979159537,0.04253906249998615,0.048180338541650984,0.4639778645831823,0.03529947916665518,TazeYaprak
42.63101829773454,2.275186390697426,0.6191600232896647,0.11788042443016344,0.9971443340845393,0.01390377753890861,0.013776041666662183,0.0379947916666543,0.016471354166661303,0.06072265624998023,0.11375651041662964,0.15973307291661468,0.04367838541665245,0.051256510416649984,0.45125651041651976,0.05135416666664995,TazeYaprak
32.29233639466508,1.2603021234404794,0.7635122718638442,0.08838697894380987,0.9968815174607049,0.007842977988293025,0.005289713541664944,0.018111979166660772,0.005029296874998363,0.04082031249998671,0.06413736979164579,0.20692708333326598,0.029443359374990416,0.034427083333322124,0.5700423177081477,0.02577148437499161,TazeYaprak
29.481166885256975,2.0235837073833056,0.6847755255379808,0.10320228776881883,0.9961425737802075,0.010667946374868911,0.007812499999997457,0.017828776041660863,0.01528971354166169,0.06656249999997833,0.09846679687496794,0.16822265624994523,0.03366210937498904,0.035055338541655254,0.5324902343748267,0.02460937499999199,TazeYaprak
43.308469954644366,2.6173822809566483,0.6518369594017972,0.22184493891636486,0.994210973653666,0.049218813926692695,0.011565755208329568,0.024488932291658695,0.01973958333332691,0.06728515624997809,0.10466471354163259,0.13395833333328971,0.03592773437498831,0.03914062499998726,0.5278417968748281,0.035387369791655146,TazeYaprak
20.961338891995908,1.1943752825538678,0.8001659250474502,0.13678381697000763,0.9941405809350223,0.018728483331704585,0.0048600260416650845,0.010846354166663135,0.007399088541664258,0.045865885416651736,0.0474967447916512,0.16507486979161293,0.023138020833325803,0.03019531249999017,0.6493815104164553,0.015742187499994877,TazeYaprak
30.294522971196372,1.5449324888502858,0.7793337905454395,0.13648512444298072,0.9917168454893526,0.018652109086858774,0.006855468749997769,0.014215494791662038,0.009482421874996913,0.044055989583318994,0.048743489583317465,0.1664550781249458,0.02290690104165921,0.03007812499999021,0.6375032552081258,0.019703776041660254,TazeYaprak
32.51089383219431,2.4087945785115723,0.6073193446897976,0.0862658820944458,0.9959866446600542,0.007460220438663956,0.007037760416664375,0.017962239583327485,0.01660481770832793,0.08665039062497179,0.14624674479161906,0.19485351562493658,0.043082682291652644,0.03612955729165491,0.42573567708319476,0.025696614583324968,TazeYaprak
22.48728336514636,1.4701643000204907,0.759369213798172,0.12969445803228513,0.9961945379161522,0.016841662491696184,0.005751953124998128,0.013401692708328972,0.010302734374996646,0.04982421874998378,0.06946289062497739,0.16164388020828072,0.025758463541658283,0.027109374999991175,0.6177734374997988,0.01897135416666049,TazeYaprak
20.87273009091814,1.668799793634419,0.6984091447185617,0.1082853613902749,0.9974875311052736,0.011740265188268479,0.006302083333331282,0.015179036458328393,0.013356119791662319,0.06371744791664592,0.10426432291663272,0.17131835937494425,0.03383789062498899,0.030771484374989982,0.539557291666491,0.021695963541659605,TazeYaprak
29.19929485789971,2.230137744634952,0.5948944235298766,0.06737580154891405,0.9972825056655507,0.0045501752974628365,0.010188802083330017,0.02421223958332545,0.019749348958326904,0.08997395833330404,0.12848632812495817,0.20270833333326735,0.049374999999983925,0.04504231770831867,0.39414713541653834,0.03611653645832158,TazeYaprak
19.393596371429318,1.5261268118671725,0.7213062937174035,0.1136608145905479,0.997076148123731,0.012936381464934851,0.007216796874997651,0.01779296874999421,0.012906901041662465,0.06318359374997944,0.07779296874997467,0.17030273437494456,0.03354492187498908,0.038610026041654096,0.5536100260414865,0.02503906249999185,TazeYaprak
23.957555709058116,1.4531947021546534,0.7596704926677654,0.14427601579351168,0.9959842332850368,0.02083360699260071,0.006416015624997912,0.014837239583328504,0.010289713541663317,0.04815104166665099,0.06568359374997862,0.16490234374994633,0.027138671874991166,0.029694010416657,0.6127832031248005,0.020104166666660123,TazeYaprak
25.55774677070039,1.7742431171881772,0.7170420047662001,0.24078872836733228,0.9968642212390284,0.057982254614360434,0.0074381510416642455,0.016513671874994626,0.013733723958328862,0.0606184895833136,0.08948242187497087,0.1442252604166197,0.034768880208322014,0.03428710937498884,0.5750716145831462,0.023860677083325565,TazeYaprak
27.256586021313062,2.236923359509665,0.6250377065251616,0.08416285032044726,0.9966925598765067,0.0071041438687213,0.005784505208331451,0.014778645833328522,0.014355468749995328,0.08331705729163955,0.1448893229166195,0.19807942708326887,0.03849283854165414,0.033147786458322545,0.44513997395818844,0.02201497395832617,TazeYaprak
259.1538787101133,10.419702555709812,0.134706977437161,0.014452128267626941,0.9309693283877222,0.00020933828220098057,0.07507573341821772,0.0765704719386229,0.057916135203966206,0.10501036352019888,0.18211894132616765,0.12342554209159075,0.0741788903059746,0.07726801658147865,0.08822943239778334,0.14020647321400628,TazeYaprak
7.251261292844637,1.865493385818142,0.43449310787354345,0.04333080073773392,0.9921933470361837,0.001889973738902086,0.019635749999999917,0.06548762499999973,0.03279899999999986,0.1349389166666661,0.14727716666666604,0.20179337499999916,0.11063633333333286,0.07567712499999968,0.11613924999999951,0.09561545833333293,yaprak
6.435140676338451,1.778547164339082,0.44330987686689405,0.0454280787493765,0.9942293339777662,0.0020770202280619523,0.019518416666666583,0.06607795833333306,0.0321164583333332,0.13427695833333278,0.1424127499999994,0.20213695833333248,0.1118210416666662,0.07697987499999968,0.11831816666666617,0.09634141666666626,yaprak
6.680012200641192,1.792435600064341,0.44257043427360016,0.04021797615392382,0.9959805206591414,0.001628219049887555,0.018941916666666586,0.06460958333333307,0.03198179166666653,0.13522833333333276,0.14653683333333273,0.20497895833333246,0.11082683333333287,0.07595874999999969,0.11674987499999952,0.09418712499999961,yaprak
6.983392588837533,1.8326493118624319,0.437659897106205,0.04693091761516106,0.990458706628653,0.002216698997459572,0.019525416666666583,0.06564320833333306,0.032810291666666526,0.1356562916666661,0.14477629166666606,0.2017296666666658,0.11122437499999953,0.07611591666666635,0.11686229166666617,0.0956562499999996,yaprak
6.504416899340884,1.7913522468650933,0.44022086806826466,0.045926197229189634,0.9906595667013897,0.002122990701462759,0.02076041666666658,0.06847712499999971,0.033265333333333195,0.1331144166666661,0.1362201666666661,0.19710887499999918,0.11290587499999953,0.07815429166666633,0.11973208333333284,0.10026141666666624,yaprak
5.972884672559328,1.7377939028170495,0.4470745325652076,0.04641748219313156,0.9947837985930231,0.002168524510751558,0.01915824999999992,0.06527908333333306,0.032072583333333196,0.1349727916666661,0.14144095833333273,0.20399083333333248,0.11186587499999953,0.07700812499999968,0.11919391666666616,0.09501758333333293,yaprak
5.782656773702128,1.6928148836302304,0.45612250515941566,0.043218385434503945,0.9962276734089832,0.0018800017318971126,0.018450999999999922,0.06456837499999973,0.03029304166666654,0.13361195833333278,0.1406133749999994,0.20662387499999912,0.11092470833333287,0.07747254166666634,0.12313187499999949,0.09430924999999961,yaprak
6.484742701421007,1.7849211414875779,0.4412987888858756,0.04755320352142726,0.9922364192187441,0.002275840564228226,0.019497291666666586,0.06600887499999972,0.03252066666666653,0.1348314166666661,0.14332616666666606,0.20210904166666582,0.11192537499999954,0.07658445833333301,0.11704737499999951,0.09614933333333293,yaprak
7.60749811220831,1.8849348530786583,0.4325594169679341,0.044327559142259734,0.9917281037412882,0.0019775876545969255,0.01952745833333325,0.06490174999999973,0.033190958333333194,0.13596383333333276,0.1497743333333327,0.20192204166666583,0.11054674999999954,0.07512549999999968,0.11426904166666618,0.09477833333333294,yaprak
6.86420829101016,1.8266433615074957,0.4374077140129151,0.046506065889826004,0.9918874536637515,0.0021766599515752163,0.019598416666666583,0.06582383333333305,0.032350333333333196,0.1346997916666661,0.14635445833333272,0.20198549999999915,0.11100699999999954,0.07606120833333302,0.11608799999999951,0.09603145833333293,yaprak
7.186761203204883,1.8845810384614343,0.42783801128765003,0.04362614716508282,0.9923602206744218,0.0019154106770099299,0.02013008333333325,0.06593387499999973,0.033957249999999856,0.13607499999999942,0.14868099999999937,0.2006931666666658,0.11145137499999953,0.07499454166666636,0.11205262499999953,0.09603108333333293,yaprak
6.436006177995713,1.7765126231532107,0.4453898441451636,0.04217060145095849,0.9948534985150406,0.001790064470219264,0.018697041666666588,0.06411237499999974,0.031619208333333204,0.13528758333333277,0.14560791666666606,0.20553695833333246,0.11044874999999954,0.07574333333333301,0.1197477499999995,0.09319908333333295,yaprak
6.290705846422226,1.7521624125192832,0.4479950476741267,0.048887445929147635,0.9914877564607909,0.00240568104122411,0.01879012499999992,0.06518087499999972,0.031193166666666536,0.13434012499999945,0.1428606249999994,0.20491570833333247,0.11126970833333287,0.07678549999999967,0.1197441249999995,0.09492004166666627,yaprak
6.48743620957784,1.7890404202966976,0.4398260891666451,0.04603128202057456,0.9934565410857769,0.002132340975230523,0.02058991666666658,0.06792220833333305,0.03314449999999986,0.13346695833333277,0.1380845416666661,0.19860362499999917,0.11299695833333286,0.07774229166666634,0.11834566666666617,0.09910333333333292,yaprak
6.545338568120225,1.7889343059930953,0.4413652631962767,0.04742910237040247,0.9915911078957272,0.002264040766001354,0.019902041666666582,0.06699537499999972,0.03269379166666653,0.1341832916666661,0.14058245833333274,0.20009291666666582,0.1124032916666662,0.07734762499999967,0.11799070833333283,0.09780849999999959,yaprak
6.704381363046838,1.8352318205909277,0.43261510874889825,0.04092703696704023,0.9945356488554147,0.0016856369969949197,0.020088041666666584,0.06588549999999972,0.033457833333333194,0.13519124999999943,0.14707020833333273,0.2012832083333325,0.1116707916666662,0.07566737499999969,0.11350249999999952,0.09618329166666627,yaprak
6.189004292109378,1.7781888815174205,0.4400487532465768,0.042550313042358776,0.9947300356821726,0.001822018611392076,0.02041733333333325,0.06721733333333305,0.03304108333333319,0.13352533333333277,0.14012079166666608,0.1994694583333325,0.11235833333333287,0.07732824999999968,0.11805462499999951,0.09846745833333292,yaprak
7.127251673377771,1.8762784222355302,0.42340669458287705,0.04988996223456856,0.9914986329591361,0.0025045929880499005,0.019077708333333252,0.0633491666666664,0.034622749999999855,0.13978416666666607,0.15899462499999933,0.20473683333333248,0.11171541666666619,0.07250683333333303,0.10359174999999957,0.09162074999999961,yaprak
6.017536497947286,1.7605533206800117,0.4413158185516876,0.04452016876873604,0.9933918738714338,0.001994734350255998,0.02020995833333325,0.06729899999999972,0.032795458333333194,0.13390345833333278,0.14018083333333275,0.19982279166666583,0.1127639166666662,0.07728304166666634,0.1172991249999995,0.09844241666666625,yaprak
6.342795813651319,1.787068222044526,0.4394736380423086,0.044588068428718236,0.9927498274327955,0.0020010486709098768,0.01977595833333325,0.06640770833333305,0.03255054166666653,0.13466616666666612,0.14322170833333273,0.20153949999999915,0.11219099999999953,0.07645962499999968,0.11624508333333285,0.09694270833333293,yaprak
6.445673321564264,1.772273674198333,0.44613858908476234,0.04056542803289273,0.9955573958732061,0.0016560847073608304,0.01942020833333325,0.06528562499999972,0.031873874999999864,0.1340897916666661,0.14152274999999942,0.20280249999999914,0.1108296666666662,0.077192958333333,0.12155970833333282,0.09542291666666626,yaprak
6.4517025231661576,1.8230800615362,0.4319706636149431,0.04687569192909764,0.9902836371087738,0.0022112137686615685,0.02089987499999991,0.06797870833333305,0.03396666666666653,0.1344855416666661,0.1421828749999994,0.19738787499999919,0.11280624999999952,0.07655733333333302,0.11436149999999952,0.09937337499999958,yaprak
6.532272349062909,1.8242924763095376,0.43311279662661895,0.04400117633945319,0.9923313751943171,0.0019485160406269306,0.020355958333333247,0.06676712499999972,0.03377762499999986,0.1350797916666661,0.14466683333333272,0.19927324999999915,0.11215483333333286,0.07612079166666635,0.11423558333333285,0.09756820833333292,yaprak
6.388478371212845,1.812503506563345,0.4336086736916926,0.04883897473921021,0.9892798821915817,0.0024004053683343175,0.020964083333333244,0.06825891666666638,0.033867333333333194,0.13390108333333278,0.1406447499999994,0.19684212499999917,0.11319887499999953,0.07695554166666635,0.11540245833333285,0.09996483333333292,yaprak
6.283209925052895,1.783187371609701,0.4402515886801244,0.04507850769754305,0.9953859008651176,0.002044891675577809,0.019809374999999917,0.06611470833333305,0.0325180833333332,0.13428445833333277,0.14352966666666606,0.20160812499999917,0.1116465416666662,0.07640237499999968,0.1173468749999995,0.09673979166666626,yaprak
6.846029140552988,1.8548936143567765,0.42965516704570855,0.04407651056083643,0.9930439150030216,0.0019550926747671873,0.020111624999999914,0.06611220833333306,0.03364241666666653,0.13581137499999943,0.1485414583333327,0.2004345833333325,0.1115256666666662,0.07527470833333302,0.11212820833333287,0.0964177499999996,yaprak
7.315641691211839,1.854385473742974,0.43599935529052614,0.046907137516903404,0.9908826716786309,0.002214626492814173,0.019245208333333253,0.06500320833333306,0.03243466666666653,0.13569987499999944,0.1488818333333327,0.20271366666666582,0.11068437499999953,0.07532183333333302,0.11529545833333285,0.0947198749999996,yaprak
7.747055289476878,1.885098342255697,0.4308111488524497,0.045138734106547174,0.9907041360766535,0.0020506615830974593,0.020096791666666582,0.06617420833333305,0.03381954166666652,0.13560312499999944,0.1469290833333327,0.2001923333333325,0.11154495833333286,0.07578045833333301,0.11366758333333285,0.09619191666666627,yaprak
7.524715282205866,1.8616840392691167,0.4357880868881968,0.0383621130339215,0.9954666134529304,0.0014810662458542476,0.018942958333333253,0.06392158333333306,0.0326209583333332,0.13601070833333276,0.15149479166666605,0.20432958333333248,0.11004983333333287,0.07502370833333302,0.11461079166666618,0.09299508333333294,yaprak
7.288069983759451,1.8795966346180375,0.42915062610610133,0.045337494787376816,0.99102578228843,0.002068567863521045,0.020409166666666582,0.06683291666666638,0.03394970833333319,0.1352206666666661,0.14646054166666606,0.19878579166666582,0.11178237499999953,0.07590679166666635,0.1133587916666662,0.0972932499999996,yaprak
7.535234834716462,1.9362186994924082,0.419942256940748,0.04248535012466506,0.9924945960761641,0.0018163168804261132,0.020671458333333247,0.06619129166666639,0.03496683333333319,0.13633499999999943,0.15178029166666604,0.19886962499999916,0.11148983333333287,0.0743543749999997,0.10888787499999954,0.09645341666666626,yaprak
6.3719028994777815,1.7916711809936303,0.4389763578775034,0.04145433008779602,0.9956236416466367,0.0017295346472183258,0.019932374999999915,0.06657304166666639,0.03261412499999986,0.1337909166666661,0.1439363749999994,0.20120524999999917,0.11200887499999954,0.07675416666666635,0.11609733333333284,0.09708754166666626,yaprak
7.199307528392275,1.8530426712388384,0.43461127249388426,0.04048177849070791,0.9952926426885702,0.00164938434113509,0.01969295833333325,0.06547074999999973,0.033090916666666526,0.1351761666666661,0.14721433333333273,0.20161704166666583,0.11104933333333286,0.07571391666666635,0.11545933333333284,0.0955152499999996,yaprak
6.686730185869947,1.848066648939494,0.4289175826765052,0.044481999759799974,0.9919335630590391,0.0019910663076855933,0.021367041666666576,0.06867224999999971,0.03466904166666652,0.1340884166666661,0.1412463749999994,0.19572929166666583,0.11325062499999952,0.07679370833333302,0.11384833333333286,0.10033491666666625,yaprak
6.684278946245492,1.835038961836628,0.4320961089712961,0.04700842997661154,0.9908956570747106,0.002223774159548913,0.020605374999999912,0.06744695833333306,0.033919624999999856,0.13487395833333277,0.14333604166666605,0.19817537499999918,0.11263037499999953,0.07637995833333301,0.11427170833333286,0.09836062499999959,yaprak
7.773550877908836,1.9122491153623409,0.42810086570290096,0.0446224810898478,0.9904337356047739,0.0020040238865930327,0.019573874999999918,0.06492887499999973,0.03366191666666653,0.1364455416666661,0.1517517083333327,0.20157283333333248,0.1107029166666662,0.07458049999999969,0.1121846666666662,0.09459716666666627,yaprak
5.4444544783487565,1.6555569429235013,0.462384143501022,0.055141306142254314,0.9950726724549115,0.0030601062969280936,0.019237416666666587,0.06604824999999973,0.03085399999999987,0.13285266666666612,0.13014124999999946,0.20231808333333248,0.11133787499999953,0.07946374999999967,0.13084208333333278,0.09690462499999959,yaprak
5.984853194989258,1.7218804241304868,0.45335193344444136,0.05436501685071849,0.9908949595130879,0.002974536146017201,0.019912874999999917,0.06679987499999972,0.0320415833333332,0.13314724999999944,0.13186349999999944,0.20016074999999917,0.11157024999999954,0.07889908333333301,0.12777304166666614,0.09783179166666625,yaprak
5.490708411994578,1.6433753336685268,0.4665508790473677,0.060417543781625595,0.9914657081178069,0.003674204711443736,0.01802241666666659,0.06385474999999974,0.029804124999999876,0.13447737499999943,0.13344679166666612,0.2070886666666658,0.11012479166666621,0.07858833333333301,0.13100233333333278,0.09359041666666627,yaprak
5.252381390176174,1.6016794342672105,0.47590780507221053,0.05671054917210061,0.9943089880565542,0.0032380642471152954,0.017875916666666592,0.0631202916666664,0.029116541666666544,0.13306491666666612,0.12866879166666612,0.20749545833333247,0.10904399999999954,0.07959916666666633,0.1392218749999994,0.09279304166666628,yaprak
4.95836753482386,1.5451052725605694,0.4865469334222263,0.05824673696487642,0.9946319417229392,0.0034160306842525804,0.01664699999999993,0.061792083333333074,0.027268708333333218,0.13313741666666612,0.12788274999999946,0.2118647499999991,0.10831983333333288,0.08001566666666633,0.14247204166666608,0.09059974999999962,yaprak
5.603416814706632,1.6670963575243016,0.46020211014239926,0.04419814982989481,0.9960874628001815,0.0019663854444914933,0.019076541666666585,0.06612433333333306,0.030639083333333206,0.1330750833333328,0.1326493333333328,0.2028568333333325,0.11197033333333287,0.07919962499999966,0.12761879166666612,0.09679004166666626,yaprak
5.165615379482275,1.6161667137218552,0.4680233241261463,0.04532632695520802,0.9981257525714671,0.002067798575879829,0.018402249999999922,0.06442058333333306,0.029683666666666542,0.1333106666666661,0.1324667916666661,0.20663949999999914,0.11089462499999954,0.079109083333333,0.13075587499999944,0.09431695833333294,yaprak
5.648299317775349,1.6843501669951015,0.4558532344795321,0.04311113048635648,0.9969349819346951,0.001870567817875238,0.019666541666666586,0.06668091666666638,0.031265458333333204,0.1329379166666661,0.13307970833333277,0.2019445416666658,0.11201945833333286,0.07892549999999966,0.12548149999999947,0.09799845833333293,yaprak
5.580310240359769,1.6865369028937631,0.4554919333542544,0.051108078244880104,0.9949142206151482,0.0026287449464087267,0.019893749999999915,0.06716774999999972,0.0316753333333332,0.13287191666666612,0.13112208333333278,0.20021074999999916,0.11231570833333286,0.079217708333333,0.12688074999999946,0.09864424999999959,yaprak
5.71837731127626,1.7051218423867072,0.4514997480455394,0.0552894854011592,0.992499112105604,0.0030764581875434246,0.019987166666666584,0.06746899999999972,0.0320217083333332,0.13351974999999944,0.13286583333333277,0.1999808333333325,0.1126845416666662,0.07871054166666634,0.12385533333333282,0.09890529166666626,yaprak
6.51767107147057,1.7831966354423336,0.44467247862309023,0.04488252716738157,0.9940075266534137,0.002027412256663138,0.02019983333333325,0.06698116666666638,0.0326682083333332,0.1334034166666661,0.13692420833333277,0.19939574999999918,0.11160199999999953,0.07790199999999968,0.12292208333333282,0.09800133333333293,yaprak
4.604416586640281,1.5111422959524528,0.4898988381278713,0.07065634246841944,0.9928427736884231,0.005026226564738388,0.016652916666666597,0.061727541666666406,0.02700195833333322,0.1332745416666661,0.12640324999999947,0.21238366666666578,0.10804062499999954,0.080355208333333,0.14354783333333274,0.09061245833333295,yaprak
4.674491935006277,1.5212349776267313,0.4886821056089975,0.06437154945249897,0.9947981186043465,0.0041719936481893335,0.017016958333333262,0.06255662499999974,0.027272749999999887,0.1321654583333328,0.12495545833333281,0.21087054166666577,0.10838962499999955,0.08051766666666633,0.1445077499999994,0.09174716666666628,yaprak
4.79438934023579,1.5415550958162705,0.4842835707876474,0.06185790837556471,0.9962893650089231,0.0038523303782753097,0.016702833333333264,0.06145970833333308,0.027404749999999884,0.13388916666666612,0.13063112499999946,0.21280129166666578,0.10808745833333289,0.079338333333333,0.13964824999999942,0.09003708333333296,yaprak
4.924152951879815,1.5795317897565617,0.47460109879581036,0.060827595890677134,0.9937322631701079,0.003724662919000512,0.01816241666666659,0.06465237499999973,0.029072666666666545,0.1332081666666661,0.12814979166666612,0.2064559166666658,0.11036995833333287,0.080017333333333,0.13512870833333276,0.09478266666666627,yaprak
4.876413351898482,1.5545859755261449,0.48245300727528884,0.06127415344835002,0.9954927118155319,0.0037804189057237575,0.016955291666666594,0.062092791666666404,0.027741874999999885,0.13385166666666612,0.1293000833333328,0.21145595833333244,0.10843870833333288,0.07978016666666633,0.13929324999999942,0.09109020833333295,yaprak
4.70145896692282,1.526428833521274,0.48782127692064525,0.058043944969016076,0.9953532502415441,0.0033921415598620577,0.017196874999999927,0.0627445416666664,0.02752416666666655,0.13232666666666612,0.1244273333333328,0.20991666666666578,0.10840737499999954,0.08050749999999966,0.14493491666666605,0.09201395833333295,yaprak
4.406270338662818,1.4734091250958425,0.49771546822712415,0.0674028907516553,0.992804921750631,0.0045742452857595985,0.016486083333333266,0.061417083333333074,0.026318166666666556,0.1324581666666661,0.12238408333333282,0.21290941666666577,0.10745649999999955,0.08151508333333299,0.14860891666666604,0.09044649999999962,yaprak
4.862839175442653,1.5459521324703829,0.4847392873308495,0.0606141260112001,0.9942532197150198,0.0036993749124460506,0.017106374999999927,0.06267245833333307,0.027804624999999885,0.13319187499999943,0.12638604166666614,0.2099934166666658,0.10856099999999955,0.08038199999999966,0.14201333333333274,0.09188887499999962,yaprak
4.849765108673097,1.5467963112770637,0.48494933768664367,0.05964135385961525,0.9943765392945283,0.003581637619712007,0.01735195833333326,0.06268870833333307,0.027996499999999883,0.13230599999999945,0.1254195833333328,0.2097706666666658,0.10835437499999954,0.080126458333333,0.14382108333333274,0.09216466666666628,yaprak
4.795582241274188,1.5372940827965518,0.48583556143824197,0.05951528796632048,0.9959893606235997,0.0035662774283032363,0.01646349999999993,0.06088999999999974,0.027355458333333218,0.13439599999999943,0.1305713333333328,0.21346245833333244,0.10771295833333289,0.07946841666666633,0.14041170833333275,0.08926816666666629,yaprak
4.183212374701928,1.415800064042811,0.5088695039419797,0.07797211016083949,0.9948598027608107,0.006120817911569196,0.015320541666666602,0.05934062499999975,0.024920749999999894,0.13353599999999943,0.12244262499999949,0.21795541666666576,0.10682554166666622,0.08220641666666632,0.1501992083333327,0.08725287499999963,yaprak
5.295777689628143,1.596016229417818,0.47585884418070407,0.07431255501340436,0.9885867976067211,0.005559213703678121,0.015039041666666603,0.0561205833333331,0.028790291666666547,0.14108308333333275,0.14717249999999937,0.2192941249999991,0.10653979166666622,0.07597754166666634,0.12833312499999946,0.08164991666666632,yaprak
4.01761885933489,1.3920438541500706,0.5146468076827784,0.07899745189259522,0.9914124310888563,0.006284524726780533,0.014020833333333274,0.05616424999999976,0.024028166666666566,0.13436312499999944,0.12642924999999947,0.22304916666666574,0.10469145833333289,0.08110112499999966,0.15380512499999935,0.08234749999999966,yaprak
5.43853794685123,1.5881301325480588,0.4793612299390932,0.07151291448014663,0.9942819745823291,0.005148895108338389,0.014338166666666607,0.05484483333333311,0.027908708333333216,0.14204258333333275,0.14918362499999938,0.2220445833333324,0.10539933333333289,0.07571058333333301,0.12899824999999945,0.079529333333333,yaprak
5.5959264582451365,1.6042323702113943,0.48029742549156923,0.07487127873544479,0.9896609124403846,0.005645017383387307,0.014132291666666607,0.05398145833333311,0.027855333333333218,0.14174716666666606,0.14922558333333272,0.22283179166666572,0.1042229583333329,0.07549641666666634,0.13228991666666612,0.078217083333333,yaprak
5.286487455329972,1.5794471730578006,0.48051078845215317,0.07373194375274171,0.9858346034810411,0.005473983380732994,0.014465041666666605,0.05535562499999977,0.027970374999999884,0.1417003749999994,0.14711674999999938,0.2216752083333324,0.1055102083333329,0.07586895833333301,0.13015724999999945,0.080180208333333,yaprak
5.370564715682627,1.6038970692935688,0.47487852470093145,0.07359287402740866,0.9905154070195198,0.005454490670927788,0.014443833333333272,0.054959166666666434,0.028397333333333215,0.1417637499999994,0.15180349999999937,0.22170816666666573,0.10532933333333289,0.07481912499999968,0.12706362499999946,0.07971216666666633,yaprak
4.254171107671407,1.4308518485489725,0.505615766491667,0.07840459343120768,0.990556208822714,0.006189580335832428,0.014312916666666608,0.05678437499999976,0.024988208333333227,0.13674724999999943,0.1305122916666661,0.2223945833333324,0.10570537499999956,0.08023612499999966,0.14527433333333273,0.08304454166666632,yaprak
5.064299693493451,1.560483950514759,0.4817636769690675,0.07286268967786866,0.9933100048130441,0.005346510968745267,0.015499499999999935,0.05815249999999975,0.027876208333333218,0.1378262916666661,0.1403922499999994,0.21799124999999908,0.10689829166666621,0.077583708333333,0.13305358333333278,0.08472641666666632,yaprak
3.889686905995571,1.3723887803549564,0.5177033747653838,0.08048871144563552,0.994145858009191,0.006523548634393299,0.014622999999999938,0.05865170833333309,0.023642083333333234,0.13312933333333277,0.11897258333333284,0.22072816666666575,0.10552545833333289,0.08288299999999965,0.1557448333333327,0.08609983333333297,yaprak
3.7302944814088286,1.3327141054204215,0.5266757393559182,0.08473851513060157,0.9958923061860361,0.0072302300204772265,0.014087791666666608,0.05763495833333309,0.022557124999999907,0.1323012916666661,0.11643704166666619,0.22233541666666573,0.1046883333333329,0.08364404166666632,0.16159874999999932,0.08471524999999965,yaprak
4.430011066887626,1.4460757603509768,0.5058240756028206,0.0803097125936612,0.991895737078179,0.006494720512090485,0.013595374999999943,0.05462804166666644,0.024973624999999895,0.13815637499999942,0.13520762499999944,0.22499024999999906,0.1039533333333329,0.079185958333333,0.14587045833333273,0.079438958333333,yaprak
5.200153007241431,1.5795178399203937,0.47952052661847006,0.07531919487388153,0.9942733198528789,0.0057113765362971506,0.014550041666666605,0.055145041666666436,0.02812037499999988,0.14144441666666607,0.14815779166666604,0.22111674999999908,0.10566079166666623,0.07580383333333301,0.1298007916666661,0.08020016666666634,yaprak
5.20744967699683,1.5759140627180663,0.48123472405620005,0.07493504388834595,0.9912887204181848,0.005653496467966217,0.014879166666666605,0.0560549583333331,0.02795241666666655,0.14055741666666607,0.14461679166666605,0.22018954166666574,0.1058127083333329,0.076796208333333,0.13152349999999946,0.08161729166666633,yaprak
5.754522313848581,1.6080334588512453,0.4812581233841994,0.07490306506862718,0.9909912784386983,0.005649301184311723,0.014284124999999941,0.05473074999999977,0.02778579166666655,0.14155529166666608,0.1472516249999994,0.22237649999999906,0.10471549999999956,0.07620116666666635,0.1317990833333328,0.07930016666666634,yaprak
3.8977770243119316,1.3520389187414348,0.5253084476681872,0.07893362841500773,0.9934981805063219,0.0062746538051367704,0.013852583333333276,0.05676962499999976,0.022749708333333236,0.13303637499999943,0.11802849999999951,0.22334716666666574,0.10379054166666624,0.08299937499999965,0.162099791666666,0.08332633333333299,yaprak
4.013875619541967,1.3880202745223882,0.5150792053585068,0.07537140338714177,0.9894438297157206,0.005720289984473923,0.013727499999999943,0.0558230833333331,0.023787291666666568,0.1364980416666661,0.12727679166666614,0.2249823333333324,0.10416766666666623,0.081372083333333,0.1509260833333327,0.08143912499999965,yaprak
4.16214301818131,1.4065906557060612,0.5110654705580587,0.07678151106810877,0.9953951941196424,0.005936226015216744,0.014405249999999939,0.05755812499999976,0.02439883333333323,0.1349859166666661,0.12605679166666614,0.22191249999999907,0.10558958333333289,0.08167195833333299,0.14927091666666603,0.08415012499999965,yaprak
5.377316903011477,1.5664711026229523,0.4870085325663832,0.07421833849595229,0.9928145701310251,0.005547027056903015,0.014000708333333275,0.05410579166666644,0.02711308333333322,0.14130166666666608,0.14537004166666606,0.22364141666666573,0.10412637499999956,0.07667354166666634,0.13503437499999943,0.07863299999999968,yaprak
4.014805912449061,1.386222661721299,0.5165819461989627,0.07543223330073731,0.9958837609299889,0.005729485777706901,0.014630333333333271,0.05804820833333309,0.023821166666666567,0.13327508333333277,0.1205208749999995,0.22079099999999907,0.10494449999999957,0.08275133333333298,0.15608729166666602,0.08513020833333297,yaprak
3.541770419295377,1.303851671263307,0.5333328200338993,0.08551355011510378,0.9932317296264543,0.007363483412270155,0.014114583333333274,0.05763016666666643,0.022110624999999908,0.1307609583333328,0.11095987499999954,0.2222338333333324,0.10400274999999956,0.08448104166666631,0.16869245833333263,0.08501370833333298,yaprak
3.9826063698884004,1.3694451651240351,0.5238225210731312,0.06956683935872288,0.9968210724791107,0.00487437261964156,0.014583958333333272,0.05752841666666642,0.023329291666666568,0.13063779166666611,0.11505262499999952,0.2202334583333324,0.10339974999999957,0.08276708333333299,0.16778020833333263,0.08468741666666631,yaprak
4.67423476024275,1.4911149941438027,0.49532146311354175,0.07985109895467521,0.9928710464044919,0.0064186724168869115,0.014572041666666606,0.05667404166666643,0.02600866666666656,0.13864720833333274,0.1365745416666661,0.22199874999999908,0.10579799999999956,0.079011583333333,0.13805987499999942,0.08265529166666633,yaprak
5.424184648103443,1.5705137531213715,0.48576132718465403,0.07812262995863946,0.9916217642024638,0.006145189654375003,0.013783249999999941,0.05384283333333311,0.026988208333333222,0.14222645833333275,0.14780270833333273,0.22445141666666574,0.10386191666666623,0.07604579166666635,0.13294479166666612,0.07805262499999967,yaprak
4.363539872447763,1.4288883075642127,0.5097932872403714,0.08180668344581828,0.9930220244899783,0.00673892413833292,0.013554249999999943,0.054633416666666434,0.02434420833333323,0.13793279166666608,0.13212549999999945,0.2255343333333324,0.10370474999999957,0.07989066666666633,0.14836812499999938,0.079911958333333,yaprak
5.009597080758743,1.4911215572878895,0.5021613250215293,0.07607815660026332,0.9924138626851686,0.005828518302691484,0.013703374999999943,0.0545114583333331,0.025295708333333226,0.13936970833333276,0.13634383333333278,0.2243858333333324,0.10351762499999957,0.07913237499999967,0.14441133333333273,0.07932874999999967,yaprak
4.767155504676051,1.4928285752711496,0.49751184875633164,0.07649195937305703,0.9944178638578448,0.005892097137927747,0.014302291666666607,0.05613237499999976,0.025755208333333224,0.13808512499999942,0.13611595833333276,0.22271637499999908,0.1049879583333329,0.07906899999999967,0.14118554166666608,0.08165016666666633,yaprak
5.416836576514367,1.6685287308710373,0.45719930391304653,0.0643652204050359,0.9930685910635255,0.004170429271772043,0.017968333333333256,0.06258491666666641,0.03107212499999987,0.13720970833333276,0.1427118749999994,0.20855312499999912,0.11028908333333287,0.076940083333333,0.12144783333333282,0.09122291666666628,yaprak
4.466063222333078,1.508858575393217,0.4863234071656999,0.07091172310536081,0.9924464361514829,0.005062062571510394,0.018253499999999923,0.06573995833333306,0.027913249999999883,0.13119604166666612,0.1191441249999995,0.20567191666666582,0.11090804166666621,0.08238691666666632,0.14173633333333274,0.09704991666666626,yaprak
4.154078389611326,1.4078263220415932,0.5122391781357718,0.08632685562278408,0.9882972483700694,0.00750692017200736,0.01342341666666661,0.05482062499999977,0.0241109999999999,0.13669870833333275,0.13127083333333278,0.22625529166666572,0.10375999999999956,0.08010874999999966,0.14956495833333272,0.07998641666666634,yaprak
4.250592974977886,1.403425745352713,0.5153013345167322,0.08442110105342417,0.9924424159052856,0.007177167400359589,0.013398708333333276,0.054864333333333105,0.0237803749999999,0.13700866666666608,0.12902045833333278,0.22564091666666572,0.10360687499999957,0.08084699999999966,0.15167604166666604,0.08015662499999966,yaprak
5.911951809232408,1.626639146655124,0.48031819696347,0.07985709498520191,0.9910955464530032,0.006420956638843213,0.013963999999999942,0.05319766666666644,0.027986166666666548,0.1425456249999994,0.14954549999999936,0.22286779166666573,0.10353337499999957,0.07550554166666636,0.1334754166666661,0.07737891666666634,yaprak
3.9652575477704444,1.3697237693520399,0.5197914952829251,0.08518242804140191,0.9903734295951212,0.007304646128984739,0.012759249999999946,0.053186583333333114,0.0232142499999999,0.13759220833333274,0.13084945833333278,0.22895508333333237,0.10286249999999957,0.08023337499999966,0.15272499999999936,0.07762229166666634,yaprak
4.45186124117049,1.4565753735135978,0.5022461267319149,0.07542828429491034,0.9959362847688834,0.005730355003692868,0.013887791666666609,0.05558499999999977,0.02504883333333323,0.13759699999999941,0.13558020833333276,0.22480762499999907,0.10482941666666623,0.07910612499999967,0.14277741666666607,0.08078058333333299,yaprak
4.591396824498868,1.4459069099437782,0.5063498153495365,0.07241242743906615,0.9932538733617585,0.005279921996073744,0.01362941666666661,0.054812916666666434,0.024628833333333232,0.13798187499999942,0.1348707916666661,0.22579599999999905,0.10411124999999956,0.079371958333333,0.14519416666666607,0.07960279166666634,yaprak
6.312104730682862,1.7529762303148382,0.4491235920555152,0.048466921433146536,0.9939317376503052,0.002364273383611226,0.019878791666666583,0.06656245833333306,0.03237687499999987,0.13364891666666612,0.13479949999999943,0.19995149999999917,0.11174787499999954,0.07789329166666634,0.1254848333333328,0.09765595833333292,yaprak
5.411233781626725,1.6545828656541104,0.4612937466473329,0.0519730891261134,0.9946822747336473,0.002718875552213992,0.01918712499999992,0.06617508333333305,0.030816999999999872,0.1328745416666661,0.1309586666666661,0.20273629166666582,0.11174233333333286,0.07916454166666634,0.1292278333333328,0.09711658333333292,yaprak
5.440465554920165,1.6697809780173323,0.45721220118873845,0.05911589670838782,0.9920101237269457,0.003517263977249938,0.019669999999999917,0.06712491666666638,0.031321458333333205,0.13297024999999943,0.13090824999999945,0.20088791666666583,0.11243324999999953,0.07916499999999967,0.12689824999999946,0.09862070833333292,yaprak
5.840265228011899,1.737174579960941,0.4445713994828833,0.05103953810575865,0.993991576873539,0.0026213826617824338,0.02096512499999991,0.06887020833333304,0.033087624999999864,0.13260199999999944,0.13322233333333278,0.19656716666666585,0.11337291666666618,0.07870104166666633,0.12154804166666616,0.10106354166666624,yaprak
5.498794189493768,1.6643556785856277,0.4614711273842078,0.048865067665813666,0.9951862378930079,0.0024035685147259186,0.019226041666666586,0.06596029166666639,0.030829208333333205,0.13235912499999944,0.1307005833333328,0.2027842083333325,0.11104787499999953,0.07898466666666634,0.13125304166666613,0.09685495833333292,yaprak
5.619154247833822,1.6848428597093819,0.45642249192147777,0.05398602338444165,0.9920423890315768,0.002933341892617373,0.019659041666666585,0.06676349999999973,0.03154737499999987,0.13293324999999945,0.13158366666666613,0.20084749999999915,0.11196987499999952,0.07880587499999966,0.12776641666666613,0.09812349999999959,yaprak
5.595207212847397,1.7021002781672827,0.4504769093333451,0.05533987502637616,0.9948481435936569,0.003081891711907146,0.02045845833333325,0.06842762499999971,0.03226191666666653,0.13268870833333277,0.13150545833333277,0.19805179166666584,0.11346058333333285,0.079107458333333,0.12358412499999948,0.10045387499999958,yaprak
5.556050527756845,1.673560479118119,0.45921204215824196,0.04638638142939814,0.9960944631040585,0.002165600382791688,0.019106291666666587,0.06555274999999973,0.030901208333333204,0.13345924999999945,0.13319412499999944,0.20346020833333248,0.11128845833333287,0.07847249999999967,0.12834766666666614,0.09621754166666627,yaprak
5.447552648264466,1.6674217240115328,0.4583374814611052,0.05324525329232083,0.9946848774354542,0.00285328132039968,0.019245291666666588,0.06623716666666639,0.03104974999999987,0.13364224999999944,0.13278783333333277,0.2024654583333325,0.1119237916666662,0.07873687499999966,0.12685004166666614,0.09706154166666627,yaprak
5.020229617157309,1.5876447474130215,0.47388625819864094,0.04812365609719966,0.9957485561626008,0.002331451215451986,0.018070291666666592,0.06460349999999973,0.029029791666666544,0.13256612499999945,0.1287597083333328,0.20680583333333247,0.11060799999999954,0.07972704166666633,0.1351825416666661,0.09464716666666627,yaprak
5.428454524512114,1.6415692297838398,0.4649256577890344,0.05173005545236531,0.9954351985271498,0.0026933973726168984,0.018439333333333256,0.06495295833333306,0.02973083333333321,0.1338235416666661,0.13325837499999943,0.2059751666666658,0.11098658333333287,0.07889941666666633,0.1288783333333328,0.09505545833333294,yaprak
5.467557542189697,1.6720809898752242,0.45643699130410853,0.05419289061625282,0.9958541292766856,0.0029559754391839253,0.01936387499999992,0.06654074999999972,0.031169166666666536,0.13340633333333277,0.13379033333333276,0.20256054166666582,0.11251324999999952,0.07858141666666633,0.12459883333333281,0.09747549999999959,yaprak
5.653340574609786,1.6788396985451364,0.45902831857860327,0.046490261282232166,0.9951125097801663,0.002175693214109933,0.018959041666666586,0.06569408333333306,0.03068979166666654,0.13308224999999943,0.13393724999999942,0.20382495833333247,0.1113714166666662,0.078511958333333,0.12780562499999945,0.0961236249999996,yaprak
5.358665966529499,1.6471777649693216,0.4618624580633768,0.059095324956746256,0.9923616100200635,0.0035150331912583302,0.019061541666666588,0.06649516666666638,0.030578583333333204,0.1328960416666661,0.13093891666666613,0.2033605416666658,0.11215074999999954,0.079202708333333,0.1280709583333328,0.09724479166666626,yaprak
5.83408702074025,1.734925305857117,0.4456001777076921,0.05729424666429385,0.9909477417105926,0.003303416102641946,0.020756708333333245,0.06862279166666638,0.032935208333333195,0.1330430416666661,0.13299299999999944,0.19691174999999916,0.11327470833333286,0.07868229166666633,0.1220042499999995,0.10077624999999958,yaprak
5.455513628427091,1.6776247988632533,0.45520424659546455,0.051133452174561396,0.9947408453451693,0.0026313661779249187,0.019960374999999916,0.06753145833333304,0.031745041666666536,0.13325087499999944,0.1306647083333328,0.19965537499999916,0.11286787499999952,0.079349333333333,0.1257553333333328,0.09921962499999959,yaprak
273.6485202027149,10.949803425639368,0.12151826337325276,0.012309312366092128,0.9369668868876059,0.00015247288484758711,0.03402024872442199,0.04990433673459442,0.05640146683662228,0.15033083545888407,0.30602279974428803,0.15965800382621242,0.06923628826516813,0.050502232142756495,0.04900749362235131,0.07491629464270784,yaprak
219.3452338684652,9.681000823571702,0.13428467661206792,0.013350647896463895,0.9455461784533605,0.0001788838150491717,0.04577885841827611,0.05638153698968355,0.06206154336722325,0.14293686224461308,0.2502192283158278,0.15120774872418843,0.07220583545903976,0.05805564413253736,0.06188217474477463,0.09927056760184297,yaprak
254.5077996625679,10.207060953403966,0.14702811871130106,0.013006300725796323,0.9465962923442535,0.0001697549977599128,0.053930165816219046,0.062181122448855666,0.05367107780601548,0.11537388392834148,0.26112085459131634,0.14423230229563092,0.06740274234680445,0.06491151147946247,0.06971460459169779,0.10746173469366338,yaprak
329.1040283425506,11.744517651744943,0.11866379698188594,0.013015499327765065,0.9142233728929032,0.00016998696708820342,0.059171715561106564,0.06363600127538338,0.05921157525498403,0.12553810586709674,0.24099170918319318,0.13173628826504358,0.06935586734680055,0.06889748086720962,0.07093032525496068,0.1105309311222287,yaprak
375.4626959369922,12.131838179003124,0.12920744996109712,0.014253666033996866,0.9020393192810165,0.00020388573430166684,0.05903220663253541,0.059111926020290355,0.05532525510193055,0.12830835459158102,0.2432437818872703,0.1422193877548186,0.07051179846924722,0.06299824617334383,0.07059151785700217,0.10865752550998753,yaprak
262.5434905401639,9.786908301926045,0.1586601584275181,0.014904205275530756,0.9364414216470451,0.00022314455026415048,0.04306839923460804,0.05054209183663396,0.04884805484684142,0.13147720025484,0.2939851721932916,0.16687260841803478,0.06413424744885177,0.05482700892846216,0.05907206632641288,0.08717315051003034,yaprak
278.1745482389626,9.505878737759684,0.1839212641855319,0.01614906320042128,0.9327754432691496,0.00026191965621512304,0.04508131377542036,0.0535116390305056,0.05131935586724466,0.12420280612220144,0.2651865433668184,0.16541772959150705,0.07487643494883037,0.05984933035702358,0.06566884566313443,0.0948860012753211,yaprak
226.57466643314143,9.546587459387865,0.15657375059666592,0.013579480171792679,0.9532586677717217,0.00018567153719128835,0.029356664540757818,0.04524075255093024,0.05014349489785925,0.14152184311196284,0.3361168686217791,0.16424186862212165,0.06391501913252567,0.047492825255007386,0.05263472576520122,0.06933593749986182,yaprak
195.60037463319742,8.647809183812722,0.167397162516989,0.015373418871783498,0.9404494305382941,0.0002374727696741092,0.03543526785707223,0.05094068877540868,0.053132971938669615,0.1446109693874669,0.28308354591780316,0.17059948979557837,0.07694913903045889,0.053471779336628125,0.05395009566315778,0.07782605229576325,yaprak
324.59330412353927,10.685597882488661,0.1531728078492953,0.015814813217552126,0.9214252116357557,0.00025116352534627597,0.053033322703975934,0.057637117346823905,0.0476124043366398,0.12314652423444844,0.2645089285709014,0.15465561224458974,0.06768176020394674,0.05994897959171726,0.06766183035700801,0.10411352040795577,yaprak
401.3337932442165,12.245778077000118,0.12285006710682529,0.013812518525361108,0.881499417530451,0.00019157838650196612,0.04781170280602716,0.0595304528060038,0.058872767857025526,0.13558274872421958,0.26106106505050014,0.1496332908160283,0.07134885204067413,0.06226084183661061,0.05913185586722909,0.09476642219368868,yaprak
346.81973418698107,11.999698387583452,0.12253200296187042,0.013268474158790858,0.895878012369973,0.0001766173564532167,0.05486686862233963,0.06285873724477269,0.05658083545907091,0.1338687818874883,0.23824139030564764,0.14341517857114275,0.07128906249985792,0.0649314413264012,0.06700414540802972,0.10694355867325625,yaprak
424.4584655754019,12.926734395963354,0.11828019619538761,0.012675810207191716,0.8744109362067309,0.00016112690448724724,0.06475207270395258,0.064871651785585,0.0543486926019325,0.12113360969363614,0.22704081632607812,0.1389309630099272,0.06792091836721158,0.06690449617333605,0.07443797831617817,0.11965880102016968,yaprak
775.3416104797298,18.849165490352867,0.07044512696554232,0.009555749460781542,0.823483892482213,9.168408116749593e-05,0.05855389030600575,0.0674426020406819,0.07071109693863459,0.1337492028058559,0.21805245535670828,0.130121970663006,0.07132892219373539,0.07146843112230654,0.06752232142843685,0.11104910714263583,yaprak
615.0584021423191,16.154949042562656,0.08714163601071202,0.010390743474766762,0.8662616327072175,0.00010830834555648547,0.05903220663253541,0.0722257653059785,0.06748246173455938,0.12978316326504746,0.20842633928529888,0.1338687818874883,0.06981425382639148,0.07152822066312275,0.07156808035700023,0.1162707270405846,yaprak
401.3529354099305,13.21454147551305,0.10500505867037525,0.011611575748821134,0.905191224586877,0.00013537774448972112,0.0443239795917484,0.057637117346823905,0.06000876913253347,0.14012675382625134,0.2727997448974155,0.1471221301017476,0.07214604591822356,0.05751753826519149,0.056501116071315964,0.09181680484675578,yaprak
643.7160672003354,16.305862821135666,0.08802739927911347,0.010836852134678538,0.8508307426016959,0.00011781721858450682,0.06038743622436944,0.0700534119896563,0.06566884566313443,0.12956393494872137,0.2117147640301903,0.1348852040813638,0.07120934311210297,0.06730309311211076,0.07134885204067413,0.11786511479568346,yaprak
562.3870237401329,15.158696249747049,0.09550676280862135,0.01148872880748891,0.8586227957001125,0.00013256370632396097,0.04946588010194223,0.06335698341824107,0.06287866709171142,0.1370974170915635,0.24453922193828814,0.14281728316298067,0.07368064413250622,0.06377551020395453,0.06148357780599991,0.1009048150508193,yaprak
558.2066894084095,14.15329622267151,0.11523999750690259,0.012429967994940777,0.856512455866305,0.00015517164341140858,0.04815051020398567,0.05807557397947609,0.05976961096926863,0.12990274234667987,0.26397082270355554,0.14983258928541568,0.07136878188761286,0.06028778698967577,0.06140385841824497,0.09723772321409192,yaprak
16.453555601631507,2.6547833724903684,0.35503346653610246,0.025692524335910828,0.9946068829780685,0.0006630893773435947,0.037935607792920094,0.07873854913493993,0.04668063431811894,0.12310020738202483,0.1345890001336799,0.1522962854167676,0.10431698492214704,0.08086623771362546,0.11141638933644664,0.13006010384931854,yaprak
623.6205285549677,16.31747672833382,0.0876575479917616,0.01040867423814034,0.8571791865540599,0.00010873075146091793,0.05978954081620737,0.07063137755087964,0.06642617984680639,0.130121970663006,0.21715561224446517,0.12972337372423126,0.06839923469374123,0.07156808035700023,0.07152822066312275,0.114656409438547,yaprak
33.77265033953389,3.4976772436116037,0.3220605465275341,0.0218511259148648,0.9924580305861916,0.0004794735484854436,0.046049616944886275,0.08206377892072168,0.05000535542634197,0.11490857457197831,0.1258093118015603,0.14107307280264036,0.10025608261591996,0.08606568094984829,0.1151812351318671,0.1385872908342131,yaprak
394.11364109098065,12.580141128309926,0.12299272901631518,0.012205520300726663,0.912045695758377,0.0001494643425176427,0.06600765306109294,0.07348134566311885,0.057736766581517586,0.10963408800998559,0.21687659438732287,0.12153220663241085,0.06660554846925501,0.07348134566311885,0.08440290178554608,0.1302415497446384,yaprak
146.1525806253889,6.93592523710719,0.20571480098942102,0.01951889300255584,0.951542762887591,0.0003831832208858286,0.038145727040740304,0.04500159438766541,0.04330755739787287,0.13149713010177874,0.2974728954075704,0.18221859056086132,0.07118941326516424,0.05173788265295811,0.05833466198967966,0.08109454719371594,yaprak
442.0681078948015,13.130427811597299,0.10591423739040727,0.013356511633314264,0.8609345146965127,0.00017921420218377303,0.045280612244807714,0.06084582270396037,0.06714365433660088,0.14604591836705588,0.24294483418318927,0.15094866071398488,0.07700892857127509,0.06194196428559084,0.05532525510193055,0.09251434948961154,yaprak
387.2476506594441,12.376962152726366,0.1313996187910996,0.013595001854248384,0.8964828471477411,0.0001855166714261421,0.053810586734586635,0.06453284438762649,0.05835459183661839,0.12771045918341895,0.23525191326483727,0.1420998086731862,0.07401945153046473,0.06841916454067996,0.0673230229590495,0.10847815688753891,yaprak
506.68464652076403,14.681557007733568,0.09300438291710833,0.010352535842383201,0.9058114197939269,0.00010763853705230579,0.04639668367337692,0.0622010522957944,0.06529017857129844,0.14014668367319008,0.2519730548464366,0.14469068877522184,0.0727838010202631,0.059729751275391166,0.05992904974477852,0.09685905612225594,yaprak
294.50733107370706,10.8658035480887,0.12467211033887336,0.014103103205351977,0.908514652194068,0.0001997810474606114,0.03754783163257823,0.053810586734586635,0.06168287627538727,0.15228396045888018,0.27329799107088387,0.16033561862212944,0.07457748724474933,0.05648118622437723,0.05042251275500155,0.07955994897943328,yaprak
320.11689890456506,11.532217071887896,0.12131678638761312,0.014093173325784013,0.9163490958387863,0.0001995748174091957,0.04968510841826832,0.05992904974477852,0.05901227678559667,0.138492506377275,0.25153459821378443,0.1424386160711447,0.07320232780597656,0.06283880739783394,0.061742665816203475,0.1011240433671454,yaprak
430.0720141111406,13.558542793011176,0.09897296904636514,0.01138929603632978,0.8990252399181471,0.0001300934725908169,0.060766103316205425,0.07204639668352988,0.06234056122436555,0.12220982142832787,0.2238520408158804,0.13083944515280047,0.07057158801006343,0.07114955357128677,0.07124920280598045,0.11497528698956677,yaprak
291.0829924305845,11.196208651786723,0.11959031870594863,0.013229431002716813,0.9246117535263048,0.00017580702708099198,0.044084821428483564,0.061104910714163935,0.05855389030600575,0.1333107461732037,0.2740353954076171,0.14526865433644517,0.07268415178556943,0.060606664540695535,0.05861367984682196,0.09173708545900085,yaprak
288.36134247173965,10.142930239937247,0.14027471030345148,0.015776704957613116,0.903218969162644,0.0002501372034818299,0.03693000637747742,0.05046237244887902,0.058872767857025526,0.15262276785683868,0.27812101403005796,0.16131218112212747,0.0760124362243383,0.053930165816219046,0.05121970663255098,0.08051658163249259,yaprak
222.63796152378637,9.483910675325381,0.1395862781115875,0.01518453081541904,0.9206045300638115,0.0002318089548718632,0.0367506377550288,0.05281409438764984,0.055066167091726986,0.14534837372420012,0.2882852359688132,0.16424186862212165,0.07252471301005954,0.05414939413254514,0.05036272321418534,0.08045679209167639,yaprak
430.2148022191202,13.61636103394851,0.09429820018190535,0.012462662980516445,0.8622107407513744,0.0001559238947464604,0.05297353316315973,0.06531010841823719,0.06806042729578272,0.14126275510175929,0.221241230866906,0.13717713647931845,0.07680963010188774,0.06734295280598823,0.063815369897832,0.10600685586713567,yaprak
209.67383037492613,9.217193483323285,0.1444313880489482,0.01621371568658789,0.9257631132654942,0.0002643336772606108,0.0373086734693134,0.0513392857141834,0.05676020408151953,0.14925462372419232,0.28001434948923787,0.1642817283159991,0.07162786989781643,0.05363121811213801,0.05363121811213801,0.08215082908146892,yaprak
413.87504416797094,12.805762455725741,0.11912429390978682,0.012704153056331992,0.9005398924103841,0.00016219380376242233,0.041294642857060554,0.05584343112233768,0.057238520408049186,0.14548788265277127,0.2769650829076113,0.15700733418336055,0.07152822066312275,0.05865353954069943,0.05229591836724271,0.08368542729575158,yaprak
