@RELATION glcm_lcp_analysis

@ATTRIBUTE glcm_contrast NUMERIC
@ATTRIBUTE glcm_dissimilarity NUMERIC
@ATTRIBUTE glcm_homogeneity NUMERIC
@ATTRIBUTE glcm_energy NUMERIC
@ATTRIBUTE glcm_correlation NUMERIC
@ATTRIBUTE glcm_ASM NUMERIC
@ATTRIBUTE lcp_bin_0 NUMERIC
@ATTRIBUTE lcp_bin_1 NUMERIC
@ATTRIBUTE lcp_bin_2 NUMERIC
@ATTRIBUTE lcp_bin_3 NUMERIC
@ATTRIBUTE lcp_bin_4 NUMERIC
@ATTRIBUTE lcp_bin_5 NUMERIC
@ATTRIBUTE lcp_bin_6 NUMERIC
@ATTRIBUTE lcp_bin_7 NUMERIC
@ATTRIBUTE class {KuruYaprak,Oak,TazeYaprak,yaprak}

@DATA
159.98168542448002,8.546668754205106,0.1467318946522684,0.013649874017511478,0.9620246064196722,0.00018782128147359965,0.7328371439040029,0.17135346619364936,0.05284875901691397,0.022068712556513527,0.01101907323632012,0.0055935933488116,0.0027815136324691567,0.0014977381097910842,KuruYaprak
124.28430505995495,7.362438710471886,0.16649431166738696,0.015055460707669832,0.9683236134551051,0.00022780603096115548,0.7354518371388963,0.1756168359939262,0.05580933465731295,0.01940264303717149,0.008173554350304525,0.003238866396756185,0.0015124894965984073,0.0007944389275062341,KuruYaprak
137.97565186767295,7.568498849601028,0.1813128881502596,0.014794215707204668,0.970252117230295,0.00022000220892542932,0.7262112180945649,0.1756533700134867,0.05671710224658915,0.022879413113215834,0.010515054256441211,0.004890722909972656,0.0019868561821763915,0.0011462631820248414,KuruYaprak
169.98334569336902,8.549112375648825,0.15031916958662103,0.014797610798273672,0.9536979404056822,0.00022010190770881252,0.6638606587476065,0.1921299130644788,0.0770019591035922,0.03402412146437795,0.01698910248558683,0.008923105179366776,0.0046834823068374505,0.002387657646623014,KuruYaprak
183.97299057154396,8.650802981425626,0.15974775287505671,0.01611528288966341,0.9494743452144271,0.00026108863379130674,0.6871617996463751,0.1523568636465818,0.0754043075035251,0.04008584348886321,0.022579903426040347,0.01249329347740861,0.006438261669339407,0.003479727140333441,KuruYaprak
135.71250479082988,7.249112796160226,0.19030699028358838,0.016689353506565672,0.9660669878209446,0.0002801603566712866,0.7749307797023528,0.1244435606000758,0.04864542381170757,0.025592388061945522,0.01336984289667686,0.00691438099462007,0.003977298802215084,0.002126325128876526,KuruYaprak
146.65276966792203,7.049733696174641,0.21935621579851333,0.018027082589062115,0.9633339411572945,0.00032672537602186034,0.7746155260082491,0.12062679982825711,0.0513908461490543,0.026545554806650103,0.013448930825296475,0.006755100790382398,0.004396176704852037,0.0022210648857266388,KuruYaprak
135.03738444949212,7.539197664359792,0.18500994424220762,0.014997033568340945,0.9715053235938866,0.00022678822184702866,0.7946614105842889,0.1334036181393879,0.04074990832410349,0.016409974330741338,0.007884121745495838,0.003942060872747919,0.0020474269649155856,0.0009014790367911907,KuruYaprak
107.55193597414677,6.5864903522683775,0.20021793434856264,0.017201925926721533,0.9662769479230159,0.00029765659238533353,0.8023893548424119,0.12428006171971787,0.04085124585599577,0.01718685549289276,0.008066364177997668,0.004109568113411691,0.0022610263226205585,0.0008555234734239951,KuruYaprak
161.0633070213455,7.703026330017446,0.18693700881608202,0.017747015330658592,0.9593968540319249,0.0003167774622126119,0.7351299975460891,0.13218972283521555,0.0637723816530786,0.032208118714691855,0.017736693647262484,0.010209713024266908,0.005610743193516049,0.003142629384346421,KuruYaprak
211.65539012940656,9.116389624783872,0.15134920787462855,0.015533158402978201,0.9336325306306373,0.00024260525722867365,0.6965738495061914,0.16083873146446315,0.0631658121756314,0.03499831148491849,0.020001228010898594,0.012679212844974858,0.007291314892691352,0.0044515396186957734,KuruYaprak
183.85981530542,8.8311667087179,0.15306443191536678,0.015140967514612868,0.9418122250518509,0.0002303916062797581,0.666641158283592,0.186002020263574,0.07715265236144793,0.03498729682568339,0.017753833909795597,0.009626863387294335,0.004897609354426371,0.0029385656126558225,KuruYaprak
206.29379380827828,9.159776783568862,0.14994657119730745,0.014674526509119936,0.9347810930566033,0.00021638128740385291,0.6582762539535917,0.16506434868052175,0.08130355991018628,0.044030469637798275,0.02517123813615325,0.014067635224354105,0.007955278434733,0.004131216021125823,KuruYaprak
416.28024766617636,14.019999204031848,0.09023176247555138,0.010889341394358078,0.8962504036883013,0.00011936410700003991,0.4608959287209799,0.2597914862018008,0.12827929711649505,0.06823103576279509,0.03851627273846288,0.021733077589373633,0.014432000989954164,0.008120900878591571,KuruYaprak
325.36894723484716,11.86024349108487,0.11273392527021801,0.011924231956312403,0.924311192987786,0.00014294903529290655,0.5388886318411159,0.2335631332990429,0.10795971560309696,0.05467388454471125,0.029426733910101286,0.017983004056173008,0.010780548743794967,0.006724348000421468,KuruYaprak
227.38425860847576,10.11874210039405,0.12988790888137408,0.013031729167993151,0.9437114024193175,0.00017079939856919107,0.6436121323519552,0.21403186274477018,0.07547487745086477,0.03446691176465309,0.016130514705857642,0.008838848039202147,0.004473039215679422,0.0029718137254856436,KuruYaprak
332.1573204566891,11.87501980908762,0.11357419414718481,0.012448322669608389,0.9169446317306531,0.00015577739620211892,0.5573177518077084,0.21928522846685944,0.10135720027190169,0.05332962344640244,0.03125579669815239,0.01805478266243422,0.011918011500630807,0.007481605144364865,KuruYaprak
300.8013832420337,11.339204032102828,0.12000478364084363,0.012980306436222878,0.9187596442339115,0.00016957676949579041,0.5971022526050517,0.20887800822176716,0.08839515297074785,0.04714613454039887,0.027622522980233693,0.015489553020131046,0.00988498314008363,0.005481392520046374,KuruYaprak
288.86922986352874,10.549378814638578,0.14079592627618404,0.013986882770083019,0.9200480444270646,0.00019679208134322707,0.6557551789648931,0.17924397138989503,0.07232786986533557,0.03863562634199151,0.023326587675492675,0.015000077240333368,0.009500563854588076,0.006210124665925865,KuruYaprak
250.35806938738142,10.02782645196545,0.1372396967482075,0.014299510430114617,0.917753661425406,0.0002052302711193215,0.5917919218151299,0.22686645636137368,0.0849879383928914,0.04127234490004133,0.025236593059897883,0.014644027958163785,0.008968887239424492,0.006231830271531156,KuruYaprak
331.63567992179594,12.05789358359739,0.11384396619427176,0.011914134131439082,0.918336052569521,0.0001427876654481033,0.5362184679464072,0.2418421661648664,0.10664198102274683,0.05262670678075657,0.02852734706467866,0.017387950320115114,0.01022911363108813,0.006526267067798308,KuruYaprak
232.06348600899926,9.049534584054447,0.16750156970694907,0.01480343511914517,0.9481183939009133,0.0002199023949081588,0.6554815732414749,0.18134097243700628,0.07085785072766977,0.03753484050783906,0.023583152678811423,0.014880768039617713,0.010126974295431825,0.0061938680706005046,KuruYaprak
203.78353609490313,9.076072108684386,0.1585826256136834,0.014118677568254601,0.9524504717290494,0.00020046364969862943,0.640239410680417,0.20699815837905616,0.08011049723744612,0.035374462860596416,0.019505831798619543,0.009116022099433524,0.005693677102508144,0.0029619398403883334,KuruYaprak
77.3162796911063,5.182070162317477,0.2435421133643884,0.021678242189423887,0.9737278218033868,0.0004732946222851347,0.8483150356524586,0.08814951672735467,0.034783405353354224,0.015880044586254784,0.006962788780127097,0.0035577407582666966,0.0016643508268286264,0.0006871173138283319,KuruYaprak
239.37638020833793,9.91608479911563,0.13226010047401698,0.015099364150086385,0.919221641663687,0.0002293786712793587,0.6609481645442709,0.1996710324045384,0.06480969070887166,0.03148250630260179,0.01943060935863704,0.01175982291088397,0.007547807907508535,0.004350365861150541,KuruYaprak
206.37266963128215,9.190759788903446,0.16280670208217296,0.015330227736643545,0.9418822803224224,0.00023628438953683396,0.6550466028932809,0.192512877115231,0.07822847682107213,0.03745094432174784,0.018656487613412657,0.009688496443448479,0.005641402992387722,0.002774711797886352,KuruYaprak
284.2820515546944,11.209387345011248,0.11677748600097843,0.01159602171696388,0.9446196481881629,0.00013531330909093345,0.5921155767300513,0.23654806731693453,0.09029432106341305,0.03939137785285577,0.019518942595835673,0.011096595711963272,0.006700991316365632,0.004334127411043827,KuruYaprak
163.76176882089,8.33263888888889,0.1516926848033523,0.015777983712058796,0.9467620380075169,0.0002503601538654133,0.7352176042101745,0.16349390953026335,0.05267184917663483,0.023535532839530613,0.01192079329128371,0.006656668911050595,0.003948093285174836,0.002555548754357355,KuruYaprak
178.3877220299945,8.687137248894745,0.1512132559884713,0.01588512529188636,0.9513966721685502,0.0002540218705803929,0.6779578035821393,0.1894095867563388,0.07222961704981223,0.03275653677264308,0.015697434249757964,0.00667064457397122,0.0034118205045770233,0.001866556509230479,KuruYaprak
228.57847325849093,9.97627951088518,0.12734028032822903,0.01307383158165904,0.9435205015661419,0.00017179779054329292,0.6024984671971145,0.22187308399720743,0.09138565297349573,0.041079092581175536,0.021428571428538584,0.01184855916613757,0.006115879828316806,0.003770692826481038,KuruYaprak
171.13958940071944,8.64966136822378,0.14840332544825618,0.014873213762964892,0.9540256118075976,0.00022258304572807185,0.6840875421893426,0.1992149915234369,0.06861951524952484,0.027108755746251188,0.011714036990070231,0.005605021610633344,0.002458878690223347,0.0011912579989901931,KuruYaprak
161.18889782476322,7.810682835327819,0.17000289510663122,0.01762375040487618,0.9432325325550082,0.00031247094286903477,0.768304638195012,0.13952882789023416,0.04466638073640606,0.020939280681298727,0.013402977758695235,0.006801053856983639,0.004166411371845833,0.002190429507992478,KuruYaprak
127.78344131464189,7.341151900711281,0.16962990545068216,0.016940485147689373,0.9526265115304955,0.00028895778745157227,0.7753785968600141,0.148260211800076,0.04202386955784467,0.017879246320973916,0.008389492504456992,0.004095417106000863,0.002720090465925946,0.0012530753831793684,KuruYaprak
228.85621434665939,10.114658694973055,0.12079076804051664,0.014228549202045604,0.9214162204718712,0.00020363094771244886,0.6091339357050077,0.23451041858713734,0.08428606552325851,0.03479009158516997,0.01708771282805168,0.010357120904772333,0.006054459401306081,0.0037801954637596345,KuruYaprak
116.80207852749164,7.060434057814329,0.17586988679470084,0.018120319257781407,0.9570915685504716,0.0003305745982309886,0.7889245340654003,0.13224870149689544,0.04197983501368472,0.01923311946223765,0.009288114879301423,0.0048732050106861085,0.002199816681939811,0.0012526733883268368,KuruYaprak
229.73388265631792,9.748861180195082,0.14446242411661817,0.014127636999081903,0.9420104774955756,0.0002009000440778753,0.6760095011866125,0.17601716343548232,0.06897555742844383,0.03585932112476307,0.021071182284850092,0.011631292621237252,0.006788751819773521,0.003647230097304962,KuruYaprak
171.9551509035055,8.18201133578453,0.17369456008140868,0.017146427606149282,0.9494919832870126,0.0002956079842976442,0.7031843233302155,0.15635333741555976,0.06849357011624542,0.03495101041023431,0.01873851806488252,0.010134721371692997,0.0053582363747621585,0.0027862829148763224,KuruYaprak
162.52306588812613,8.442197321943501,0.1462796396445091,0.01541734939123743,0.9483738487284568,0.0002390135743944316,0.7173401753249682,0.16701792968605178,0.06354806194437285,0.029063196798880444,0.01368398546074455,0.005910382113067121,0.002367207306267193,0.001069061364120668,KuruYaprak
154.0430920349238,7.654826554089787,0.16648424948558693,0.016485235076111493,0.9542548284203174,0.0002734640439340145,0.7854983503402355,0.13243305455362167,0.03994475562028705,0.018890508708633638,0.010619197421912653,0.006414486303987701,0.003974526202710083,0.0022251208470770736,KuruYaprak
147.9419508872855,7.831306063172852,0.16621751685586797,0.01721740792944583,0.9445905708603426,0.00029826476049059174,0.7710552087146972,0.1546088872564656,0.04025890561874119,0.016893132574340657,0.008553678540811982,0.004605826906591067,0.002693108091561554,0.001331252295260541,KuruYaprak
152.07936139345935,7.716191939398385,0.1795550733431134,0.01670484573624328,0.9578585045287024,0.0002806073932509327,0.724922218644957,0.16291936794003875,0.05615583858253076,0.026560608150525602,0.01397765414499674,0.0075405765782219246,0.005011724676988963,0.002912011280207654,KuruYaprak
315.4268119683619,11.450421457492041,0.12783445671263605,0.012358358317865149,0.926162778939034,0.00015347145826658692,0.5900815489670103,0.1985231774804629,0.09184664477625391,0.05131881175900458,0.030954693304920757,0.01896129121765564,0.01120720220750866,0.0071066302856416675,KuruYaprak
186.53173325764536,9.220812037437478,0.13566742912786312,0.013281516055802127,0.9559339862260491,0.00017713978073907163,0.5814077959405726,0.23950575749661354,0.09826739865108151,0.043521477833952375,0.020369152661568718,0.009618766534629671,0.004878197972252568,0.0024314529077998693,KuruYaprak
161.1138874171033,7.851798436899302,0.1778828107303257,0.015457204512318792,0.9557039277097014,0.0002403758654189474,0.710233013869515,0.16506935301116832,0.06243301999439292,0.030711289384196223,0.015554670994189114,0.00851220184327672,0.004761321534638597,0.002725129367092187,KuruYaprak
171.690867815268,8.465178446991578,0.16029864097792518,0.014173350338819151,0.9638609312275452,0.00020192992730453502,0.71731638201621,0.17414413724412323,0.0561537872404746,0.025855862755570412,0.012636899747242648,0.007428965305954769,0.004028490464878565,0.0024354752240140377,KuruYaprak
178.81193214449573,8.80046083537589,0.15062108029240207,0.01528314396351525,0.9426725286341513,0.00023498337494379451,0.6924277430104007,0.19364413911257608,0.06305368973474447,0.026424101473405414,0.012668880150538322,0.006319139495377207,0.003656838594177124,0.0018054684272506305,KuruYaprak
198.60576005923835,9.582300302167354,0.1322446824332924,0.013577763629917795,0.9438430107905837,0.00018537353849655249,0.6317417063415567,0.21160116960822462,0.08286768420556503,0.0378285696789121,0.019013793420157354,0.009032317325195523,0.005128519159221187,0.002786240259636585,KuruYaprak
227.64582962382866,10.134603202494086,0.1336662978970496,0.013170889336080396,0.9430934245592728,0.0001743158089713289,0.6073508675117906,0.2248789160685659,0.089862669364095,0.039344614064068195,0.020170437128287397,0.010315124762414451,0.00537980503953562,0.0026975660597101684,KuruYaprak
165.32777786789353,8.298748678393002,0.17740198497522247,0.016805897778426865,0.9619189537802341,0.0002839250193956336,0.6772882184819934,0.19493222074458616,0.07216542111767431,0.03044335427073427,0.013968486849122051,0.00634236547306964,0.0031024100988750287,0.0017575229624168882,KuruYaprak
92.47086443615189,3.8543364481207605,0.5284382954227382,0.0896839660989736,0.9872767509604049,0.008067290536274883,0.8221588207310261,0.09422790790407831,0.046323991839543624,0.0206617274860481,0.008620557421795867,0.003911462887113783,0.0021014526099395617,0.001994079118920752,KuruYaprak
84.5289838193217,3.2707706320884533,0.6373550958785574,0.1437125107187203,0.9872657926192819,0.020708379929480224,0.8588474970883235,0.06802585625870347,0.036211016481777755,0.018074872863154717,0.00963482629739349,0.005039519637269408,0.0026040071074036456,0.0015624042644421874,KuruYaprak
73.32554095780287,2.562507358948391,0.681742454439825,0.15402383482705445,0.9910110489384406,0.023778297787741064,0.8984918615686809,0.05684639671388768,0.024200717285313735,0.009839683658753273,0.004705269288531549,0.0024522576096581363,0.001823866597183239,0.0016399472764588787,KuruYaprak
87.2216315990216,3.391067543132312,0.6264896555440966,0.13610945107141165,0.987586672816532,0.01857538063838122,0.8513269183610392,0.07023780338307453,0.037049521941595595,0.01994974258393609,0.011231306692799658,0.00537815641087678,0.0029418975238984096,0.0018846531012474187,KuruYaprak
67.72384842968862,2.296273909073351,0.7054846974202211,0.1706962707548509,0.9915926288782778,0.029190647586496185,0.9157202629991943,0.04922831701066834,0.01951047557739128,0.007356660076314073,0.0029886431560025924,0.0020077551458273822,0.0016092693916937035,0.0015786166413757283,KuruYaprak
75.61834025674993,2.6110305381342664,0.6727716461962651,0.15939254226551203,0.9919062721920129,0.025452587629102123,0.9004985809604963,0.05616322773635627,0.02388586331207504,0.009833550663481117,0.004540921991248691,0.002163074326912383,0.0017181866993913966,0.0011965943085047225,KuruYaprak
75.93576088523375,2.7332000312378764,0.6541759042555091,0.1527167237951865,0.9924902461337087,0.02336883897218818,0.8939668128686102,0.06186547250243556,0.024200226972940834,0.00983038370700575,0.0049535318835614,0.002131705671253977,0.0016102812624580402,0.0014415851302005313,KuruYaprak
85.67386556552466,3.0990339202468635,0.6119314478323976,0.14191972987225926,0.9924893949169892,0.0201800751493368,0.8766402185409895,0.0744026151413091,0.026995503307253033,0.010512745745007577,0.005125922742821213,0.002823861630775758,0.0017802605933151517,0.0017188722969939396,KuruYaprak
90.59000171207867,3.130606737793005,0.6149221824924503,0.13648128234167123,0.9916474782371089,0.018666504280411153,0.8761283389608902,0.0712772490020398,0.02801657967450412,0.011621123733479243,0.006063862450098152,0.002870739944730011,0.0022413263739603294,0.0017807798587630016,KuruYaprak
90.68311206927278,3.0030542489665972,0.6447190881710327,0.1510198097105823,0.9911812723413724,0.022849587062172362,0.8799815710652231,0.06657452199943703,0.027581970360089716,0.012362742839572506,0.00632726714273773,0.0036704292405687314,0.0019503954541934263,0.0015511018966420163,KuruYaprak
95.69826144090914,2.9824193669500794,0.6502798862432146,0.1461240444175631,0.9902304519900595,0.02140911556004267,0.8821812147551862,0.06640751040968239,0.02602830232161082,0.012000061459963431,0.006238188159724908,0.0033802990028066002,0.0017669744787398138,0.0019974494107493548,KuruYaprak
88.97328378808423,2.610269202349962,0.6921682984913239,0.16693978973101709,0.9899593434992611,0.027923751892433294,0.9010527933591008,0.05677399523544644,0.022070237454818918,0.009206178436933518,0.004933528010443505,0.0025512948589832456,0.0019057865211682076,0.001506186121568422,KuruYaprak
79.08775080497652,2.4304898656765634,0.7070996253333722,0.1801331556292704,0.990788743133658,0.03249603214020419,0.9085480057709654,0.052841659246441644,0.019834812244742185,0.008597132242303115,0.004145045902539002,0.0027173078694422343,0.0015352021861255562,0.0017808345359056452,KuruYaprak
96.66635625420231,2.6152479064541456,0.7002204513177905,0.1744751237141061,0.9883289845974028,0.03048497532384066,0.9056644410927269,0.052521460878046024,0.02179932925137411,0.008984338943403303,0.0046921633180445335,0.002569151718404712,0.0021691640257189486,0.0015999507707430542,KuruYaprak
107.31075956362562,4.1937982686945485,0.5558943086383592,0.1244189984506622,0.9884456450007422,0.01551085226100006,0.801346852995442,0.10035435426206821,0.05174185828889576,0.02472809829875481,0.011612388593149746,0.005507064075218968,0.0029606221908558797,0.001748761294080675,KuruYaprak
88.58434247044154,2.5039594446846225,0.7020656436372699,0.17535243669024214,0.9886796858371583,0.030791821830847797,0.9111643919818776,0.050319685232924016,0.02016476085082355,0.00828415098978193,0.004057543341934007,0.0023207918357274057,0.0019211852944763291,0.0017674904709182229,KuruYaprak
74.97520821318521,2.6806283941271576,0.6564244407625768,0.16118596602678278,0.9916875118089457,0.026021577858793145,0.8938287887603996,0.06329172162061268,0.024138882924847192,0.008634174769179777,0.004309419378578184,0.002637794068026504,0.0017176333466219097,0.0014415851302005313,KuruYaprak
81.02407996623634,2.8818980229958493,0.6263948129290273,0.15453521988744723,0.9915600487225328,0.023919985097992758,0.8861711269321044,0.067164866191893,0.02579486864714922,0.010143014976660104,0.004618831328252181,0.0026700220967304966,0.001979499140679506,0.0014577706849965353,KuruYaprak
71.69588026540018,2.6205991235341237,0.6534064393078712,0.16654528393591753,0.9914968079060485,0.027773831929028995,0.8936587759093376,0.06252299766947363,0.023288973383994712,0.010272292407686937,0.004292898319630362,0.0026370661106300793,0.0019318042438336628,0.0013951919538798675,KuruYaprak
78.20871996347257,2.8440612084293297,0.6354783556307384,0.16068064961762774,0.9914738263678229,0.025858097813067932,0.877459927907236,0.07304241122774285,0.02724135286444169,0.01081371270801317,0.0044942096786494455,0.0028529795229651767,0.0023928215353901483,0.0017025845540276055,KuruYaprak
142.24378026179116,4.747928125600465,0.5942025407946431,0.3894061414255998,0.9852770883238116,0.15168154654674698,0.7853150836772562,0.09439423565442503,0.05160813536350232,0.031223537743789588,0.01752090037102197,0.009715015935074572,0.006374035811602017,0.0038490554417886574,KuruYaprak
135.67554870722225,4.567251477796772,0.6207843957333407,0.44471877873147936,0.9839464622055164,0.19781442808658486,0.7876887126021774,0.0915044737568928,0.05425391261560395,0.030947329582094292,0.016588260615538867,0.009946806875119228,0.005580665990213725,0.0034898379608223565,KuruYaprak
103.39993291341924,3.8631854184686936,0.6742969271080349,0.45082148002600014,0.9820329482186325,0.2032569729031357,0.8207907283334293,0.06910824607921218,0.045944412932430984,0.02857537060595641,0.017522343670927133,0.009167420398262838,0.005595499072518288,0.0032959789057299504,KuruYaprak
92.14403524185136,2.9234807976497925,0.7515795979295874,0.5479993291938505,0.9795085762949995,0.3003155961762948,0.8713574001672854,0.051782018854829796,0.034276078792006934,0.018916225952297208,0.011374262282499617,0.006545566030495063,0.0036023606959399057,0.0021460872231131353,KuruYaprak
74.07163472282137,2.4682731251200174,0.7848523714316502,0.5016367536753896,0.9815653860225604,0.251676748150936,0.8889773423133972,0.04537660747084296,0.029745866503322494,0.01725352112673415,0.008879363135320149,0.004898958971211116,0.003322106552352538,0.0015462339252885085,KuruYaprak
105.78644339015909,3.7692023650757798,0.6030039877709588,0.1399903189644267,0.9862555160566172,0.019642159955088185,0.8225207245919212,0.08750383788749232,0.04524101934288419,0.023748848633675546,0.010884249309163518,0.005127417869196918,0.0029782007982760545,0.001995701565855088,KuruYaprak
107.768045207971,2.83145306192321,0.6846721089752956,0.15469722970378752,0.9789850167557528,0.023988970519704014,0.8918357294571132,0.05098051288358375,0.026213711787663987,0.015069420927846766,0.007326909460321819,0.003925130068029546,0.002632146045619813,0.002016439368281845,KuruYaprak
68.13266952614306,2.0779197303921544,0.7293277635985136,0.1574679596689137,0.9839439339247341,0.024865409762740754,0.9247410817016881,0.040705792098134706,0.016524741081677754,0.007702339854226771,0.0037897967011832913,0.002884541618714408,0.0018411967779028136,0.0018105101649377668,KuruYaprak
90.95288566897273,2.4893813977796917,0.7019816077677546,0.15287183194635778,0.9802611304318418,0.023427003344346387,0.9105829872313327,0.04331641285949343,0.023242578064877336,0.010921396708181938,0.005552991847399549,0.002876480541450736,0.001968927857249702,0.0015382248884763293,KuruYaprak
82.82819004409288,2.4309300058871464,0.692997080659977,0.14874731451308298,0.9829328146382238,0.022175862814561895,0.9117967778088006,0.04295741119005551,0.023145090691245495,0.010873738692370146,0.004930042542727143,0.0026416427331746686,0.001981232049881001,0.0016740642902095281,KuruYaprak
97.64234374999901,2.4774721861783897,0.6976873366632395,0.14481316129658534,0.9797931870539026,0.021024721529334878,0.9162640406202243,0.04039082935830068,0.02074165256190069,0.010663178950591379,0.00538544391444009,0.0030158485920864504,0.0018772118787476885,0.0016617941221700849,KuruYaprak
88.87481649185271,2.5187622999566743,0.6820982236743227,0.13884682845048757,0.983896643137815,0.01932966414065944,0.9111947752579159,0.045086438724479316,0.022051479062586168,0.010526315789457508,0.00507107184017661,0.002842873607371736,0.001859393008064757,0.0013676527084112676,KuruYaprak
89.40483206578982,2.7228309724624236,0.6475610207446698,0.13045545183613247,0.9859011651614645,0.017059941873624303,0.8998878424249084,0.053559082458780466,0.02284634412398352,0.011430854087588257,0.0059305237604960585,0.003088174289791989,0.0018283220919664014,0.001428856760948532,KuruYaprak
83.41455512903522,2.649294862552782,0.6356386218612645,0.12643254745443672,0.9874856860862354,0.01602325407837937,0.9033724430233685,0.055454880520831355,0.02209902328149441,0.008461821979224059,0.00483752073222428,0.0026107254745337386,0.0017660789974787055,0.0013975059893092366,KuruYaprak
125.95085285706861,4.524324028017871,0.4744663280475119,0.06062380028529233,0.986349845604011,0.0037007773216674324,0.8231614539294195,0.08864981172659855,0.04175824175817758,0.021732114039772946,0.011450088373147697,0.006163067701519768,0.00430338891876692,0.002781833551060045,KuruYaprak
114.41532385380128,4.466756355728357,0.47054592324738637,0.07941138561828753,0.9881918920269912,0.006342646880392951,0.811789434922117,0.10330331251806112,0.04464765177893329,0.019439372784848277,0.009481872439649751,0.0052472497966993764,0.0033754238458300083,0.0027156819123268705,KuruYaprak
86.61502101054715,2.9124810319347434,0.6724620054505608,0.15860574695732305,0.9822220958281045,0.025219728807029954,0.8739619629439974,0.05846777288277516,0.03211199287759665,0.017099789706330144,0.00905644158593787,0.00457427049594828,0.002901131287698741,0.0018266382181806888,KuruYaprak
117.0975069534504,4.521143235173761,0.4923892955065964,0.07791165444451797,0.9870566294829386,0.006106754772186526,0.8083487969070677,0.09699878847348138,0.046544082690437305,0.02266627816028545,0.012345300351170357,0.006226325394503311,0.003879951538939255,0.0029904764825816393,KuruYaprak
119.90801081614774,4.281052765162217,0.5222088791068024,0.09199111904829417,0.9855007562018486,0.008516904757074091,0.8218797488743582,0.09024206793852327,0.04387001703832276,0.02125961287546432,0.010683531091208062,0.005556664159507642,0.003929574654237448,0.0025787833668433255,KuruYaprak
120.8873482554743,4.183411668588791,0.5520158416228774,0.09800108691751525,0.9850898168488802,0.009662922974554622,0.8228021134102985,0.0848129262147742,0.04454137740363006,0.023361184493421144,0.011718989985851632,0.006435461080041722,0.003809055722793191,0.002518891687653562,KuruYaprak
89.41122334258272,2.924257632280752,0.6738081454471248,0.1446592903600706,0.9836588016362904,0.020988443507008604,0.8743307714714984,0.0565296761623383,0.03253716231759011,0.017610873333613126,0.009802567996671419,0.00455612315338249,0.0030374154355883266,0.0015954101277837675,KuruYaprak
77.44737184916795,2.2924264255334403,0.7446492657616994,0.15924083366843547,0.981622051179122,0.025427643726481076,0.9085943972248341,0.0404712957564351,0.02468472891285219,0.013224509833982963,0.006428155012110049,0.0027614985732215005,0.002408640422198753,0.0014267742628311087,KuruYaprak
98.392111522611,2.4836960093473452,0.7378748801256114,0.15536537800733854,0.9768022121042244,0.024196390197300088,0.906974240675268,0.04032295271043395,0.02411380238366149,0.013963860053803977,0.006520569011908465,0.003829296424446245,0.002260668973468265,0.002014609765471719,KuruYaprak
75.95540582348069,2.326630022106851,0.7394054986993759,0.1585857866402447,0.9815064519198523,0.025209129562163358,0.9067613366239219,0.04094526829112401,0.02412243708686819,0.013740434602564461,0.0068088760753779246,0.0036958088607344144,0.0023156312778875375,0.0016102071799880228,KuruYaprak
73.06517526311926,2.378535509179153,0.727444858276661,0.15313949214631556,0.9829555403172873,0.02351486227870379,0.9063716922685641,0.041317879373192715,0.025618618342339528,0.013184926256380607,0.006853095391397827,0.0032042437064924963,0.0019010823904548782,0.0015484622696446992,KuruYaprak
82.2536756596007,2.725892355103711,0.6909495734948543,0.1459024761880654,0.9830153958079835,0.02135015630124297,0.8936088610688304,0.046161634756924766,0.02827380952376615,0.01597017673046151,0.007885370643090505,0.004126779577804175,0.002285837015214952,0.0016875306823734542,KuruYaprak
95.07875441536689,3.2603532295269773,0.6343284026309015,0.13288416223859217,0.9843787672251492,0.01770089569988908,0.8660545669483563,0.06067771107451033,0.03717123950186981,0.018624003930511394,0.009074020051881479,0.004345089128058305,0.00244123382106456,0.0016121355422124455,KuruYaprak
62.26782018934918,2.4301628279988123,0.669129659844331,0.1281233241097536,0.9842221334646828,0.016487928080836864,0.8959835852192016,0.05230679712733351,0.026827139510271752,0.011530157563490085,0.005849296400070667,0.003307455556060901,0.002204970370707267,0.00199059825133295,KuruYaprak
90.1018280979649,3.219045724600983,0.6245007359155352,0.12814275073756246,0.9852099278072413,0.016463033161008476,0.8669655055942234,0.06183509617589255,0.03550759122513393,0.017961038362908213,0.00913403232985503,0.004866366804309319,0.002348751170534151,0.0013816183356083242,KuruYaprak
83.70937902489243,3.0984359080640718,0.6327885994925773,0.1341768156332615,0.9873011336478671,0.01804575617377548,0.8649838882908317,0.06829829676220915,0.035092834126077804,0.018029768298269095,0.007043117999068524,0.003084241215278373,0.0020715052938436833,0.0013963480128872236,KuruYaprak
80.7214533172315,3.022163801182112,0.6406756889749907,0.1419968625073656,0.9877693099698173,0.020207161707304966,0.8652049161449293,0.07073481349627801,0.0340018105656729,0.016509904408241894,0.00711951268162104,0.003099443020878125,0.0019333159437160583,0.0013962837371282644,KuruYaprak
79.21217290224655,3.099065473615781,0.6333756298906074,0.13859556168572337,0.988594715732665,0.01925216934911271,0.8572984248211517,0.07487844905585227,0.03808340618715305,0.01621190509054401,0.0069632969830718825,0.0032822589303466584,0.0020245709289988733,0.001257688001347785,KuruYaprak
82.20688711973449,2.86498697916652,0.7057532699165001,0.46388244376785437,0.9908658434944835,0.21526355790944013,0.8714423651648789,0.07014881910268649,0.030284917314159603,0.012736217757118739,0.006207181939389999,0.0042454059190395795,0.0030652750317975304,0.0018698177693964935,KuruYaprak
84.25787685325048,2.892999822784359,0.7085213963051324,0.4441754645771439,0.9903313196452268,0.19735256688487302,0.8670662905487412,0.07151836634563145,0.031765499478702754,0.013797755565073592,0.006975531980120538,0.004093334150971832,0.0025142576807467435,0.0022689642484787684,KuruYaprak
83.2206651137754,2.8101019289454756,0.7248928547214053,0.48532191167722566,0.9899379289635181,0.23556572505864942,0.8703456733335321,0.07072890319602862,0.030934314401730768,0.013075802866539319,0.006576224419396679,0.0034337395569810168,0.0025599754732849546,0.0023453667509736407,KuruYaprak
100.95818233972113,3.3827420343135257,0.6777409744900843,0.49371215581632233,0.9891762676214902,0.243768702808039,0.8403749386339586,0.08374754540978807,0.0401018654884019,0.016767918507583506,0.00874447717229881,0.004817133038775134,0.003022214040250641,0.0024239077074091433,KuruYaprak
94.1746211342961,2.9270780318866483,0.7360162403419344,0.5848556375939571,0.9881969369946604,0.34206714171025837,0.8626599564230174,0.072344800073538,0.032574339460471086,0.015926596495510592,0.007456961364950046,0.003958633811022864,0.0027771810844772803,0.0023015312854784095,KuruYaprak
85.99624851318937,2.6411238315790966,0.7622685400807756,0.5775466537362349,0.9879893886805846,0.3335956957058598,0.8782992550797365,0.0643757088990767,0.027865485423457487,0.013426933570378856,0.006422243340169795,0.004031145581061232,0.003172802795740209,0.0024064253088464387,KuruYaprak
66.31371379096933,2.228205813268944,0.6944688753428526,0.1290075174968877,0.9783592138217859,0.016723114157054905,0.912776883573369,0.04486855215751534,0.020955008814254685,0.01030121867094305,0.005135280141020717,0.0023300375565228327,0.0020694412508590948,0.0015635778339824272,KuruYaprak
85.70198503880587,2.226659743247788,0.7191598659498613,0.16717843666733137,0.9852651066449312,0.028003891176259652,0.9207528022496105,0.047665175207885255,0.01657518028196784,0.006119593462173656,0.003367313990492539,0.0021372449528696937,0.0017528483786125547,0.0016298414748502701,KuruYaprak
72.21666630622721,2.154777459390589,0.7154575025449337,0.16315948948354972,0.9876028223736426,0.02667610872525352,0.9207522856953415,0.04789225010730826,0.016276001718082658,0.006795729275316322,0.0031754310609265887,0.0021476345339600115,0.0016107259004700086,0.0013499417070605786,KuruYaprak
109.08688292964075,2.3864405216742988,0.7206506912541675,0.16615194854441379,0.9818280058290496,0.027655696022787602,0.923943705392191,0.046336688606899115,0.015476392335770696,0.005996331293441037,0.00323709401445403,0.00195767114207458,0.0018960122084659319,0.0011561050051621536,KuruYaprak
59.40989192858375,2.100236567666223,0.7053160888663859,0.1534360699814291,0.9912680275027353,0.02359268088291821,0.924011459560731,0.04959171479777306,0.014431694575070195,0.0050863297228485186,0.0025278445911747155,0.0019150337811929664,0.001424785133207567,0.0010111378364698863,KuruYaprak
72.16799246383395,2.5486405318866887,0.6822123526532339,0.1565798327326763,0.9915134238533884,0.02456525289523989,0.8997883825049073,0.06087836594482476,0.022465190455709893,0.008464699748499564,0.0031589278046936778,0.0022541863460678185,0.0015794639023468389,0.0014107832914165939,KuruYaprak
77.28020256631837,2.751671802912244,0.6506384593571358,0.14633162012583412,0.9920019122550279,0.02145454724594258,0.8916160127695529,0.06720083502169337,0.02377663166939311,0.008135322649953744,0.004006262663467787,0.0021029041566861563,0.0018266101798952745,0.0013354208878225955,KuruYaprak
69.99745931552422,3.0859099715251834,0.6524033441806676,0.437231635292958,0.9934058734011034,0.19122439395748667,0.8597237307049613,0.08508359976123192,0.030426335836945394,0.012115464043670565,0.005507029110759347,0.003227730951028395,0.0023863792813290504,0.001529730308544263,KuruYaprak
60.85131606533272,2.761737627955451,0.6495827198173661,0.40084328233085503,0.9942520133713394,0.160735001252085,0.8940197862338966,0.07070444502198703,0.017721983516540432,0.006682059358695573,0.004388446306511738,0.003012278475201437,0.0020642517469654518,0.0014067493386727523,KuruYaprak
70.01378880718642,2.922703076941385,0.6812186442737898,0.44156628638060436,0.9930211248952051,0.19500114985649425,0.8606149654853137,0.08379631755347844,0.03163597961334062,0.01229012657451017,0.005341536954550498,0.0030151369055772146,0.0022345684680927583,0.001071368443606117,KuruYaprak
78.57505597306007,3.009772548418713,0.6834653836765439,0.5164216528767214,0.9916671844966835,0.2667027380435981,0.8561477103956763,0.08659307684050616,0.03152318691913051,0.012309199748897975,0.005741231226165101,0.0035365984353177018,0.0024342820398940025,0.00171471439288131,KuruYaprak
71.15937638167952,2.3448648957131732,0.6887142928910467,0.12461091941871735,0.9777949815968062,0.015594413022071853,0.9092275369194883,0.0445350959252158,0.022696949713952953,0.011317803303308973,0.0059042740809945185,0.0028524544910778714,0.0019016363273852476,0.0015642492370427036,KuruYaprak
71.33391180675449,2.5314578827853618,0.7437582993036356,0.5692167738355292,0.9911859686081921,0.3240171230997076,0.8837704190191463,0.07050016074944426,0.025230024954415668,0.009476568839067535,0.004332583168749778,0.0032915384497568985,0.001990232551015799,0.0014084722668727193,KuruYaprak
60.948951635187626,1.8230066560937908,0.7537970838005889,0.17462390134687786,0.9881156943776618,0.03056948036985497,0.9344923270310223,0.039001057811649725,0.01399684189545448,0.005335050361027557,0.002498888531170953,0.0017170277023996735,0.0015483910530568483,0.001410415612685446,KuruYaprak
74.5458740778771,2.1158750390474252,0.7326538892095671,0.16923442259183563,0.9871040296167968,0.028710496242605136,0.9208351256668702,0.047133288268839287,0.017636575923281453,0.006682848890790446,0.0029957598475957173,0.0020893504578103463,0.001336569778158089,0.001290481165118155,KuruYaprak
75.38527223603771,2.0770730758601865,0.736675922568565,0.1681181448716247,0.9872667909145668,0.02832991122726817,0.9246282870469946,0.045281395920304,0.015866920619292412,0.006097935610705797,0.0029491275497619974,0.0018739247972446025,0.0018278446792795713,0.0014745637748809987,KuruYaprak
114.53262712958751,2.3717739120770256,0.7408336741555457,0.1648434914212881,0.9820883553620625,0.027228153026868943,0.9292818701893178,0.04018566207645424,0.013801292232703972,0.005859766534555876,0.0036238029884753447,0.0028373606377849504,0.002251383984329363,0.0021588613548363753,KuruYaprak
110.92850230379936,2.40038295066794,0.7245364878743636,0.159736964320722,0.9834443259819869,0.025573962867141437,0.9262163744477765,0.043462853973371546,0.014605737528095082,0.0056697377746191885,0.0030043447447031025,0.002727020614422816,0.0019874896003420524,0.002326441315129069,KuruYaprak
79.95621819131884,2.3641227833044125,0.6925464305033766,0.15320367192909706,0.9902139974699059,0.023520517471504264,0.9162893496831822,0.05318250886366985,0.016315442113154704,0.006031955550771213,0.0029929550442757925,0.0018571669761916455,0.0017804245391589328,0.001550197228060795,KuruYaprak
87.80556549764125,2.9794671520567513,0.6753682736268476,0.3786125183205009,0.9908402662537169,0.14343323153395876,0.8714752288500368,0.07036508885709192,0.030896852047731578,0.013539414569799992,0.005719367649530461,0.003710688930794562,0.0025300151800872013,0.0017633439133941098,KuruYaprak
97.69484329944731,3.489579548731043,0.6046654345922389,0.3102038622330187,0.991105510543844,0.09631833516687,0.8483583921435282,0.0843050015340836,0.03637618901497948,0.015434182264474633,0.006551089291183567,0.0039275851488126306,0.0026848726603211337,0.0023626879410825977,KuruYaprak
106.99033484716846,4.2498309844768265,0.6183201246417103,0.44690974419189694,0.9916415156023264,0.1997651305501295,0.7917521982891759,0.09919115168954443,0.05268237384715726,0.027099482214487117,0.013603357945994664,0.007445081038010593,0.005239131100822269,0.002987223873275855,KuruYaprak
71.61138978998349,2.5923085171567926,0.6656810825667483,0.1271661041391088,0.9828984424255679,0.016229279596462465,0.8936786897299508,0.051941479572978864,0.02735860630593277,0.014093362777551691,0.005919519077404736,0.002806404122189292,0.0023616734143013713,0.001840264998156913,KuruYaprak
96.88856550064514,3.8487509461503193,0.4944960491476682,0.057613748712359775,0.991732924057791,0.003344018299298713,0.845920338514019,0.08720448900731732,0.034204151718587365,0.014963358170031945,0.007543004323417743,0.004338760616925247,0.0030969245392893983,0.002728973108878777,KuruYaprak
79.44066024785961,3.3686217890954175,0.56568962659699,0.09751778077361717,0.9877890728858403,0.009546903489551754,0.8476715686261524,0.08501838235281094,0.037837009803863605,0.01499693627448683,0.0070772058823421,0.003921568627444973,0.0017769607843110035,0.0017003676470562189,KuruYaprak
111.67458388900556,4.589505073168791,0.47694853113637026,0.09108306293965066,0.9855288173361652,0.00831631203218467,0.7752638127263333,0.12329692948078691,0.057985039091811456,0.024069551326322797,0.010521788550434662,0.004700244228369353,0.0023808426646968945,0.0017817919297086434,KuruYaprak
107.81794605740758,4.91123785022588,0.4432385549889678,0.08022467321239801,0.9866842733993935,0.0064543160193966205,0.7593934288109682,0.13433407367674913,0.06188251512589127,0.024875545684269165,0.010017615072359628,0.004962855173462568,0.00275714176303476,0.0017768246917335118,KuruYaprak
115.51765075331252,4.918905108611865,0.4456815978267662,0.0630994259287003,0.9855429650651863,0.004016651285979077,0.7881762084846068,0.11145477652373875,0.052657367284673386,0.024452985040309218,0.01140730986539159,0.006277848382296042,0.0033839133963107933,0.002189591021142278,KuruYaprak
79.72394050665325,3.4629771752449425,0.5821871961448767,0.12344610530121417,0.9885167919849527,0.015279792710086912,0.8348938778624858,0.08877480652809934,0.04212704007349302,0.018787832349982703,0.00798406252393229,0.003647230097304962,0.002237376446245901,0.0015477741169235342,KuruYaprak
114.64254956026292,4.490356833909858,0.48772732085216575,0.06437317375161214,0.986158362714416,0.004179326893695659,0.8013286691816237,0.09395808401593489,0.05107551627842052,0.02597502224673053,0.013056552824552677,0.007824726134573284,0.003897020467022773,0.0028844088496074068,KuruYaprak
104.65680013395965,3.760839295583269,0.5441599377300544,0.11868525458507666,0.9886438048567134,0.014126710107153988,0.8299040413347636,0.10326320969412674,0.03838346558399707,0.013671034016095112,0.006135818416672609,0.0037676077997112513,0.002368210616961358,0.0025066125361344243,KuruYaprak
102.26976251621659,4.25909375300347,0.522863895669559,0.1064367738620089,0.9856276630057215,0.0113617967076985,0.7917005570804749,0.10728810177850664,0.05636807292697109,0.025306548395473815,0.010021331778195513,0.004404475069436619,0.0027623885452912594,0.002148524424115424,KuruYaprak
78.51618850021464,3.2725542910177636,0.6283192194968417,0.13776705550644955,0.98512487757561,0.019032463221356703,0.8456144648394053,0.07428387709160818,0.04162775387718109,0.01993355481724523,0.010181116707732779,0.004715464580423602,0.0018984337921185933,0.0017453342927541905,KuruYaprak
64.02300290152769,2.3988564494425186,0.6607768066003727,0.12178307851527781,0.9808974704939832,0.014905472687050482,0.9007156320380945,0.05228557855854194,0.024487794412822398,0.011109919242363103,0.004781096280851432,0.00283494491012024,0.001992123450354763,0.001792911105319287,KuruYaprak
85.48489320513698,2.5767360360197884,0.7082248428691147,0.16129515136374692,0.9772722098819592,0.026082953416954893,0.8988684691310106,0.04269725024174735,0.025977615033813923,0.014846544762232898,0.008198609000033472,0.004682726114251328,0.0028403420692999855,0.0018884436460751255,KuruYaprak
77.03586703431355,2.4264026155805554,0.7266917783988325,0.15995852537370964,0.9763536369032795,0.025648340004025973,0.9035617867209113,0.03923794330586692,0.02494171063930399,0.01420419683394557,0.008252546324689759,0.004571113019995443,0.0030065038655003582,0.0022241992882528158,KuruYaprak
81.87986307850318,2.6742538777152993,0.7086833672117173,0.15479167723835363,0.9774685112148767,0.024016719228944192,0.8909799230035875,0.043420911363604625,0.02802190217637077,0.01727020353070251,0.009494010644320474,0.005398855810663662,0.003174895320475506,0.002239298148741178,KuruYaprak
83.02055872440812,2.704557787269321,0.7009459824221911,0.15054503073830677,0.9759797016109195,0.022720923673872427,0.8949386503053759,0.04095092024533596,0.028266871165600817,0.016349693251508667,0.009233128834341667,0.005429447852752409,0.002990797546007683,0.0018404907975431894,KuruYaprak
92.29175070886001,3.14447336961734,0.6622223799309611,0.13907648895338418,0.9812135644391548,0.019402174393389978,0.8690496279805645,0.05932346398702259,0.03494669018940715,0.018746644166573987,0.008928434455766007,0.004832400092038303,0.0024085295696825828,0.0017642095574108088,KuruYaprak
91.77666711721207,3.1590632208764475,0.6445921784150718,0.1315606426771055,0.9828725753148987,0.01736276813581867,0.8668876001091367,0.06235232747236437,0.0341066003865812,0.018349749915587545,0.00885268035225252,0.004495381877313671,0.0029457792506628836,0.0020098806345668634,KuruYaprak
93.501401113752,3.281867641051366,0.631287967284075,0.12918008431078173,0.9839219327173634,0.016737516861948513,0.8603655448630966,0.06529779169150392,0.03581787210528088,0.0189064346331217,0.010036370332842201,0.0050795696944507165,0.0028850728173919478,0.0016113438607774175,KuruYaprak
80.06094457359926,2.974778015066218,0.6362980553945846,0.12622851800907717,0.9874278195433894,0.015985743671244338,0.8762126622616803,0.0671734432710583,0.02855216171890979,0.01373201121854169,0.006942635136160029,0.0033870250885019125,0.0022529080905419963,0.0017471532130733849,KuruYaprak
86.73256028330172,3.4349207636484302,0.6061000060670096,0.2581074420007997,0.9899199999598302,0.06664350203210961,0.8448016919008692,0.08189787286200899,0.03743946545694011,0.017041623245238398,0.008198982406656962,0.005532397474398436,0.0031110157543016138,0.001976950898053735,KuruYaprak
97.04691732145943,3.641444126057135,0.625400918617071,0.34842913467159775,0.9873427749677106,0.12142310687307578,0.8287606143269232,0.08384169706617847,0.04216608932889524,0.021366604334598315,0.01154164495262018,0.005947089298295657,0.0036173017381385957,0.0027589589528175733,KuruYaprak
84.09417142745504,2.5216122254661357,0.7107657173047393,0.15849959149142853,0.9772802694110376,0.025189801931224613,0.9034926188489343,0.04149403062940568,0.024445262867101792,0.013396556486490813,0.007657367338784554,0.004465518828830271,0.0029002854249103823,0.0021483595740076906,KuruYaprak
60.857217521504936,2.1178396680362974,0.6950641949430295,0.13686560021400926,0.9891870533957225,0.018813296589508696,0.925886193313626,0.04600695774770347,0.013961471854816077,0.00544052964704688,0.0035248501938613588,0.0020536083738148785,0.0017011233544287426,0.0014252655131700275,KuruYaprak
73.41241870614529,2.4372623360005026,0.6950958859933033,0.14399144210993195,0.9872380482834883,0.020809238149806137,0.900136421464308,0.055411640276436774,0.022992381857442644,0.01005533499898825,0.004506506844058758,0.003203605205470342,0.0020233296034549526,0.001670779748307499,KuruYaprak
70.30822990256009,2.1032983558005967,0.7101476563401655,0.14842086294232365,0.9880196501641169,0.022097413618915852,0.9241912712526484,0.04668221717505573,0.015744889816438914,0.006368547050508918,0.002547418820203567,0.0015499355472322908,0.0014271683751742876,0.0014885519612032893,KuruYaprak
90.28598764597635,2.686549839604919,0.7278435979461298,0.1673425543037708,0.978789341066109,0.028067105381619904,0.8929130234684877,0.045359717748051295,0.025740144193855286,0.01595336708081615,0.00906580763919456,0.005322902285618465,0.003420770056751924,0.002224267525690713,KuruYaprak
77.69943930819719,2.7527443170894506,0.695970632750536,0.1602065538100138,0.9851396909558479,0.02572686050568474,0.884883382592559,0.054885986002764384,0.02912755172356525,0.01509977181884087,0.007840855143252055,0.004303281826667632,0.002067412977224663,0.0017917579135947079,KuruYaprak
109.47204689903529,5.77074881055372,0.2517406696581987,0.02011729773843954,0.9665299399237209,0.0004069445677922774,0.8872158613190956,0.05704939083104232,0.026904321506600878,0.014399926624555696,0.0069095189323770435,0.00382163657764217,0.0022318357613430274,0.0014675084458145933,KuruYaprak
235.05117376732392,9.306625216263326,0.16389497497569713,0.01656454065825921,0.9426375539461529,0.00027607536051515514,0.6590399213241663,0.1838562955220138,0.07766065336968306,0.03669442822453564,0.02083653461996245,0.01149389962812088,0.006223301269236573,0.004194966040744653,KuruYaprak
82.01921166138163,5.82200851235107,0.21215049092790988,0.02045709594477614,0.9724073439657303,0.0004205887276099099,0.7697261988328047,0.1651048502790435,0.04284057263202765,0.013995299288767138,0.0049754281004777395,0.0021061628155396566,0.0009004609138901431,0.0003510271359232761,KuruYaprak
173.28032307286423,7.902634203191164,0.1977118305535696,0.015927395407948235,0.9696379666524018,0.00025496001220854563,0.6835284216958404,0.1786244357735772,0.07330732155141412,0.03376941320475286,0.01618850891283576,0.007864738734591287,0.00454441129216656,0.0021727488332917563,KuruYaprak
172.71249735679197,7.918530883554617,0.20549589440780358,0.016109304236412735,0.972524219197952,0.0002610616894758788,0.685136148652771,0.15405690845337874,0.0802810218418253,0.04138796626507066,0.02080112653632804,0.010852096184147595,0.00486737177229751,0.0026173602926505483,KuruYaprak
105.06476939458892,6.028030640258627,0.24925268228041952,0.0237484001764155,0.9753734000796939,0.0005681362811167222,0.7639111763165927,0.13979184814980242,0.05488056485251344,0.022694970427731123,0.009964391056485314,0.005028043953349185,0.002445249339014801,0.0012837559029827705,KuruYaprak
109.91934699094585,6.18801490111984,0.24379935075614317,0.022957938693677835,0.9743147362120339,0.0005309332439910676,0.7518907274132528,0.14685795480566094,0.05750867060845899,0.023437380635859748,0.011260332156863515,0.004751646269721239,0.0027959847825047806,0.001497303326150101,KuruYaprak
146.52550962971745,7.084452073721693,0.20705100300350346,0.018276475976658445,0.9553604955755912,0.0003359592888176997,0.7286116724834212,0.1606497642229153,0.06001592259161612,0.0253230448894217,0.012829934472391405,0.006476207973534086,0.0034294812909494926,0.002663972074219695,KuruYaprak
180.626273143158,7.668340406935053,0.21538676950801267,0.020715983692723594,0.9276100751331156,0.0004316299507349202,0.7697334110489159,0.11821640028205323,0.05129306377879668,0.02606068043067451,0.01587569408225316,0.009464061109903573,0.005690707733831808,0.003665981532037203,KuruYaprak
170.55472075044028,7.858934694588832,0.1951122290826691,0.015712347813024715,0.9655046499732229,0.00024844207768883467,0.7660449134851423,0.11076512455499024,0.05543624984652191,0.030586575039835275,0.017134004172264797,0.01000122714441956,0.0063351331451614685,0.0036967726101305425,KuruYaprak
135.0786638702717,7.39876773656764,0.193645465233438,0.018557250930368287,0.9432436051090015,0.00034639023494855824,0.7020226710246233,0.16369274954907925,0.07413914265624653,0.03397598460076083,0.015322802407627298,0.006462158941601542,0.0030095633841501273,0.0013749274343833068,KuruYaprak
110.35228124398944,4.085490226114786,0.6216502742544368,0.22578624694246172,0.9830158238513118,0.05098688619113011,0.8136999325265079,0.07377476538049167,0.04897871557374566,0.02930442249888164,0.016377353861227417,0.009016745384271274,0.005321106544799544,0.0035269582285414845,KuruYaprak
175.19816934893151,7.104471852772955,0.35824452565294457,0.03617417064714051,0.9791057245481114,0.0013166080292200024,0.6808390022665305,0.1645063430775196,0.0803150088863144,0.03831893117601532,0.01789544646684762,0.009729116871959109,0.00514800514799726,0.003248146105283986,KuruYaprak
101.16517427191242,4.277964815215155,0.5464477871893307,0.07864916525435467,0.9855728424988419,0.006220364564760939,0.7937042594224918,0.09021036837417673,0.05481213828573535,0.030774412836404485,0.015800594053318125,0.0076859478825249015,0.004332914842140532,0.002679364301677007,KuruYaprak
70.34500660803488,2.6775592019896104,0.6821904998080291,0.13522350951171772,0.9842407486269382,0.018337945575824494,0.886544908986564,0.043829702545821664,0.028735016304054232,0.01965677194161195,0.011068415976468413,0.0053581543454549714,0.00290871235896127,0.0018983175395326185,KuruYaprak
74.61297954813013,2.888567362913296,0.6525120472952888,0.10145369280297835,0.9826111514661646,0.010355073252497838,0.8745769978702519,0.04929027516185203,0.03339611373967048,0.01901786944735018,0.011974214096479743,0.006385226698506462,0.0034758907927121504,0.0018834121916457907,KuruYaprak
102.44725086204845,4.802513291162003,0.4434253359079017,0.04062120771566731,0.984535188684781,0.0016614540353748237,0.7572100289461684,0.1308603023385599,0.06152455928066422,0.02758419996626245,0.011961832411799541,0.005712885390014378,0.0028947328115622446,0.0022514588534373013,KuruYaprak
256.14826901011145,6.9863591076746445,0.3941985323830898,0.05516212550017562,0.9769926884863214,0.0030614433262938926,0.7180523269408583,0.10123718738770732,0.06774107992563187,0.04471348113009234,0.02875329578602937,0.019579699517887607,0.011966238669497845,0.007956690640735203,KuruYaprak
213.08722734344536,5.942574745890766,0.4128642177668895,0.056709281848999454,0.9805300649236619,0.003236599312536375,0.7565338923817742,0.09683981675580892,0.05941455081907071,0.036446929109346306,0.022998680021705104,0.013712244739477113,0.008634210730633382,0.005419675440631385,KuruYaprak
154.30291611098772,4.330624384251107,0.4344757490351375,0.05164631423781398,0.9822322309229397,0.002680798788750472,0.8349684327790992,0.07690641247821721,0.03993872245599168,0.021957786580802864,0.012425724189136504,0.006561029957900221,0.004270859123538823,0.0029710324337661378,KuruYaprak
137.36869333609386,3.773148894055043,0.44173912665100457,0.05009865336678316,0.9824025066127912,0.0025217913932465545,0.8615016221213324,0.07321180287336133,0.03304495597090523,0.01535609454655437,0.007214583655171922,0.004325660435649119,0.0029507183686035055,0.0023945620268771904,KuruYaprak
191.17557818807438,5.1598139988224165,0.3980062477551966,0.04228121798811594,0.9805355895820124,0.0017973057815545493,0.7935333798545499,0.09349461114973483,0.04928277894076253,0.028316662789752166,0.016639528572510446,0.009257966969048216,0.005412111343714954,0.004062960378376269,KuruYaprak
221.3487071829324,5.982746134299141,0.4127472149022554,0.053554102003262,0.9797057846619733,0.002884286631060685,0.7454429612581849,0.11207285046058015,0.06531367033913177,0.03588133828528557,0.019160541405698187,0.01117309754314436,0.00613821075040615,0.004817329956014953,KuruYaprak
187.4117974306813,8.08179701016447,0.17063631097247192,0.016131786566342128,0.9405064504405007,0.00026140508158789273,0.612401311232263,0.22981978238418238,0.0819366852885145,0.03601274297053417,0.018006371485267084,0.010911553318849883,0.006740846761151268,0.004170706557698615,Oak
181.27398776913378,8.408734020569064,0.16323747712842393,0.0208952593500458,0.8948691108713561,0.00043829666492394535,0.5907516399966423,0.2356231990677524,0.0905983691985614,0.04026423885715121,0.02167249095698965,0.011663907792269536,0.006192140273425614,0.003234013855675259,Oak
1040.0500890883263,21.333151101739276,0.077501770065425,0.010398903054084238,0.8005877145551579,0.00010852923982444412,0.28985903927690937,0.2101409607222353,0.1521486246062814,0.11078417955366295,0.08454221978909857,0.064561379499,0.05012316956334658,0.037840426987755166,Oak
552.4453105926957,14.158191455810165,0.15478877301029798,0.018825682081482373,0.7257793067569307,0.00035668705973471377,0.580049180326918,0.13736065573747974,0.07752459016380733,0.05806557377039661,0.048032786885167156,0.04077049180321185,0.032311475409783096,0.02588524590159691,Oak
460.59415963812455,13.633505953238826,0.11231875438418505,0.012093162077479081,0.9147727975478909,0.00014709683232381793,0.4624606271442144,0.23349474245023194,0.12278062463742062,0.07297886010676041,0.04622882484752914,0.02975882657134164,0.01908701988620017,0.0132104743547346,Oak
615.2205190162516,13.045771022564885,0.19419841283278055,0.021480381081226026,0.8563484369766161,0.0004640465116561949,0.5819026949977619,0.16812969681237347,0.08865638766505465,0.056588494428516795,0.03669992225959332,0.028002720912108054,0.022447525265576498,0.01757255765739574,Oak
734.5933229857675,18.39321764765969,0.08764483302496678,0.011762578950130085,0.8017629684022034,0.0001387990306580117,0.35254463540738773,0.20692474553611392,0.12980143500729216,0.09516102119123117,0.07563824461859563,0.057166694476794316,0.04737193392283102,0.03539128983808545,Oak
323.8716216269063,9.709387510212444,0.2257450834902523,0.019921804336188058,0.9170393613100722,0.00040066543446391355,0.7229215571964096,0.10026310399681714,0.057425992154053807,0.03982795834443018,0.028059174767179652,0.022734075906255046,0.01595954185241605,0.012808595780863031,Oak
718.9698909674429,16.139674464148605,0.15517230117650815,0.015852618529162376,0.7361369423363432,0.0002527485343164814,0.5369633401899818,0.15348554854785085,0.08519105595075176,0.06338740683271493,0.050858318437740954,0.04274729351448055,0.03664294627493737,0.030724090249855444,Oak
220.08857090723,9.438939034866346,0.15381858640532375,0.015328297755685996,0.9243843973986688,0.00023656510596009863,0.5950729674443785,0.20517000107612732,0.09094404035108807,0.04802472742922692,0.027879868981488445,0.01699241876698551,0.010103184732949756,0.005812791216217667,Oak
205.33973739068995,7.903261065456025,0.22183015767819322,0.02832942097451514,0.9538856878062951,0.0008042084811359597,0.7175605403232137,0.15822025293061598,0.05814025046915576,0.027539308901769994,0.016615895873693626,0.010584941075093718,0.007169451367723362,0.004169359057195346,Oak
329.93630825584717,11.58660021085616,0.12217775856429233,0.013502075960603658,0.9226363181564237,0.00018308520629459226,0.45348368283835855,0.251814741282647,0.1282882491622281,0.07245005583808095,0.041459858543179275,0.026197419034579044,0.015944906315895357,0.010361086983480641,Oak
583.7846078731905,13.905848742070198,0.14910177964945787,0.013657733384579146,0.8508569962968686,0.00018781338667539464,0.5844441547427167,0.16254929439728424,0.0852752338427056,0.0573281621744006,0.03953329205090843,0.030326239285548468,0.023221327771040606,0.01732229573376573,Oak
357.34792578275403,11.453365727724693,0.13138012906119306,0.01705077311193813,0.8867672079382027,0.0002917100536777257,0.47460091621120626,0.24600134461100703,0.11563657968367917,0.06266514485832696,0.041870573335977934,0.02742381838360915,0.018777654434842982,0.013023968479787014,Oak
110.45938570802163,6.698450220468054,0.1720716553490593,0.024868927940630517,0.9342847243068411,0.000620368871602156,0.6458311018612063,0.24093767692341447,0.0664850886721857,0.0241457928480343,0.011460835768807154,0.005462641347749204,0.0034887457346969705,0.0021881168423757316,Oak
212.42692152658373,9.4582622068435,0.14197424445938894,0.013682934292669676,0.940755812593033,0.00018821512967511406,0.5748464472244477,0.2400477889928469,0.09658890743931167,0.04653300044412129,0.0215050469465261,0.011426470813467572,0.00601957510682675,0.0030327630309203474,Oak
138.75812813881862,6.835859570237437,0.2350386391908605,0.020573856422140498,0.9640824955918008,0.00042663161047831776,0.7435764021719434,0.13759277679985066,0.055995102915210045,0.029948733644456424,0.016604177825362915,0.009151427041075596,0.004330859285325073,0.0028005203152455423,Oak
552.7378839268696,14.685876135380552,0.12869378370496665,0.013704692493357108,0.8005891789269257,0.00018901531071276187,0.5204242139223241,0.16997745958102392,0.09549678109832568,0.06849692704352653,0.05236187912489279,0.03989167626114471,0.029399841081892423,0.023951221885248265,Oak
793.8684604178892,18.08643066969475,0.10621561246520482,0.011842346184065456,0.7588476029120577,0.00014091173384897095,0.4242780784609805,0.188540020842121,0.11355766968078536,0.08360506941862439,0.06641005815701347,0.050005042525212616,0.04074360439701358,0.03286045651656829,Oak
177.70975515727434,7.366163149389685,0.21106458901905056,0.018983416418257775,0.9357752208352983,0.00036316753846363725,0.7116849540624003,0.15524537941836036,0.060956279527768185,0.03143995937269134,0.01737430941349414,0.011726504670577974,0.006971268524634937,0.004601345008533877,Oak
209.10592153559412,8.406784244641601,0.18168063031142706,0.01793176417771971,0.9189744681387132,0.00032378645114662446,0.6496677148999277,0.19370129970691727,0.07125927532404186,0.0351029386704954,0.020618716403543416,0.013756138366901993,0.00929468808574459,0.006599228540878659,Oak
183.24649985883076,8.393260930291175,0.16199154462310228,0.01622073107808626,0.9442724795633384,0.00026459658552427167,0.6115196266550843,0.2272762162075693,0.08397169217530592,0.036950614820102624,0.01991065534759996,0.010684515128704372,0.005971661472795978,0.0037150181913023824,Oak
314.1275763828902,10.918204987264438,0.14915148356682573,0.015239228932000273,0.8900519702282407,0.0002336600873334178,0.5310989215313451,0.20999132267229145,0.10463927110433767,0.06320503284978429,0.03954382050322371,0.025505144415480498,0.016037560431362282,0.00997892649062542,Oak
595.6793094903525,15.010269277441116,0.12356422743251758,0.014066373407453297,0.8059032062662581,0.00019881246210663004,0.516543785611395,0.18655478743462692,0.09553523046339753,0.06400761917262351,0.04670027422445902,0.038292911213585946,0.02981986567919043,0.022545526199079548,Oak
1407.1937148572897,24.922846140907374,0.08382175529240533,0.009285952811736374,0.6964613831714064,8.663869066282564e-05,0.36668109206471355,0.18343462471977076,0.1153028392945692,0.08860330780648276,0.07449150469438634,0.06602442282712849,0.05595800327383303,0.04950420531723427,Oak
223.79701225191047,7.795471468305621,0.24860372812117337,0.02552379556716541,0.9141619060495303,0.0006564491461794062,0.7296411371745695,0.12364455491669467,0.05976386515448227,0.03467453782812696,0.02148516389619157,0.01472735746463457,0.009662886437766563,0.006400497125980425,Oak
592.7409600724725,13.83450609441081,0.15790415972691885,0.014309048763608879,0.8624391699171519,0.0002065403265697127,0.5791128979953001,0.15905259062291835,0.08749432591905924,0.05845924388810962,0.040383243628752376,0.031904545749251174,0.024836262239762603,0.01875688995522541,Oak
451.08952007643313,13.89547866205291,0.11152962106505782,0.014129933852909365,0.8530879845098966,0.0002004875293282742,0.4038177068573886,0.22242155289046922,0.13778994743943318,0.09160293330801057,0.06330846945509819,0.038853743744627744,0.0256349730903194,0.01657067321307939,Oak
362.62433520162375,11.623689926951279,0.12308481763174985,0.012497750481298425,0.9383324261495057,0.00015702615731655342,0.5082036245664115,0.2574316104677978,0.11143516641175422,0.052559343709952654,0.030646620293785447,0.018481549642817178,0.01306965282757873,0.008172432078342786,Oak
152.5445091731578,7.035537803969663,0.19098886953461935,0.01782003557527149,0.9590747099197023,0.0003184844295366814,0.6709507231252075,0.20135576583868633,0.06265049154170414,0.02933914083703305,0.016563655046521533,0.009738815698649235,0.005843289419189541,0.0035581184914749964,Oak
190.75922169358387,8.287651083717751,0.16468466256727501,0.016386087011128658,0.9403512783491474,0.0002700555535078747,0.6308179289776567,0.2232824720720612,0.07395626853505131,0.03228383964100204,0.01802424745306777,0.01089445135910064,0.006822477296813376,0.003918314663710385,Oak
130.43930687716565,7.05843008097843,0.18853506949270496,0.01725543017370032,0.9618145229158963,0.0003003218669484462,0.7068050820237791,0.19192135398322516,0.057929579402727645,0.02305563624684964,0.010488174048633192,0.005488709159561685,0.002629687953884707,0.001681777179809987,Oak
507.4475972132325,13.913685556636686,0.11868542632622286,0.01125049347341963,0.9059945150786635,0.00012717970387561838,0.4770887369323633,0.22544997249041035,0.11528727501357339,0.06981057926578667,0.044344887212065795,0.030857502161391406,0.021771594749631733,0.015389452173205392,Oak
499.273512336013,14.711017952830387,0.09663821045029755,0.010992396288036558,0.8842858772376516,0.00012133694549640706,0.3778191926205417,0.24977888685284955,0.14933034304101755,0.08895066018054054,0.05711036704773342,0.036531050603265315,0.0230905300397639,0.017388969612708652,Oak
166.12463568700005,7.600603914359921,0.20978011898931198,0.028835420840376824,0.8862686277270148,0.0008389545026041534,0.6678362393885517,0.17762694205225135,0.075613642631576,0.03822817393430235,0.01922900131765509,0.011307572089585225,0.006236018754012447,0.003922409830533628,Oak
336.4229853902392,11.551151330017301,0.13448772336678128,0.013553212331242227,0.9256900322067165,0.00018434184086407163,0.518316495121633,0.21293617290358277,0.10532972853309092,0.061755917089500616,0.04012711663419164,0.028506379547457657,0.01946275830444835,0.01356543186451396,Oak
157.91159094459164,7.186884341359085,0.1951193923422395,0.019087722714324032,0.9562812220772441,0.00036706182240402565,0.7036025949715449,0.18114197199487578,0.05742067082794132,0.026363817615713443,0.014247810683535653,0.008849286075780487,0.005260494149034154,0.0031133536800406216,Oak
690.2352116073436,14.572511503988533,0.18085077592651552,0.01642573123543967,0.8407472800290705,0.00027199543431354685,0.6512590318209635,0.10826505581773113,0.06895055651030596,0.05019440319046474,0.04096650925285603,0.03212241560559994,0.027049576985287017,0.021192450815123078,Oak
793.9183074418775,17.743503189879174,0.13539395376256003,0.013872832174041312,0.7959152859031358,0.00019360428000473402,0.4687457810171649,0.1469218307004406,0.10095180234895884,0.0834177129740728,0.06858377210735017,0.05449237208037246,0.04261171864445354,0.034275010125499064,Oak
263.76274092296774,10.23882349937502,0.14579913476446027,0.018373686699312313,0.9063829978270009,0.00033897372151705325,0.5479612428169078,0.21453548377125478,0.09981976985982127,0.05986105334494838,0.03684705084948958,0.021365743949933968,0.01253908837436644,0.007070567031737341,Oak
670.5193976175137,14.974627727316054,0.1581696022001808,0.018013956379862348,0.8062537905539282,0.00032776082299572145,0.5618871445633901,0.15617070735155406,0.08772733969570003,0.0633358979814636,0.04658929068370261,0.03635798123981149,0.02669962512477827,0.02123201335796285,Oak
276.98161585989004,10.471591800629461,0.13879293768380135,0.013207541873469692,0.932237086338819,0.00017630573855169062,0.5383240911883267,0.23752310536007776,0.1036352433763037,0.05391250770170377,0.03069932224271303,0.018838570548338204,0.010782501540340755,0.006284658040655753,Oak
605.7948098537818,16.83727501141347,0.08162936507710278,0.010156091572246295,0.8546481074796449,0.00010367685112639387,0.330236459240088,0.24174973386199272,0.15618245749837706,0.09948708022823399,0.06837317332806159,0.0474692732022848,0.03306558276068088,0.023436239878667962,Oak
216.04447306925454,8.716950692041513,0.1776586079279941,0.01657549593416297,0.9443160940174598,0.0002762502879174265,0.6855975045703137,0.16962461008901547,0.06209376296491634,0.03420458212321301,0.02152768174062059,0.013383733616046061,0.008727853839166662,0.004840271055171652,Oak
788.9057907415552,18.390140721117028,0.08999005113706175,0.010668871661042339,0.8091080860257988,0.00011431812028271132,0.35823881485341386,0.21279058232166134,0.14014086835729614,0.0957970966566982,0.07134354022672638,0.052346152574233085,0.04067325815938515,0.02866968684893246,Oak
200.13068804666784,8.303699178200674,0.18097751431564546,0.017627620252684006,0.9411611594641786,0.00031365275840205414,0.6406696799178417,0.20293330873504453,0.07617685945319286,0.035882298680878326,0.02066230052574999,0.011853150078387829,0.007010423392665175,0.004811979214702192,Oak
493.26914726312066,13.215270959487036,0.14274112823270324,0.0165354936201561,0.8535137593761768,0.00027512219165429333,0.502337678915409,0.20163079034259102,0.10490034945490609,0.06845489795581794,0.047647162073676544,0.0335253474604134,0.023791667331497564,0.017712106464092752,Oak
223.60993635260536,9.131261804353885,0.15510028639144635,0.017219382210483736,0.9393466204768455,0.00029900000973225786,0.5932935641576316,0.231204452507255,0.08875803327067316,0.04046616032711099,0.021478429322558532,0.012299744780276898,0.0075335936779196006,0.004966021955036798,Oak
500.8769233738499,13.150471228013267,0.17318610968420273,0.020187026852129218,0.814955836665413,0.00041005577703063806,0.5590870613780979,0.14713069588387484,0.09159732315393206,0.06855025474745884,0.049096804075882676,0.037581255689834725,0.026720544313256902,0.02023606075606485,Oak
149.36086398561537,6.919600108732428,0.24496831573129246,0.021709862118415316,0.9462678098999415,0.000477919972215266,0.7166229664033662,0.13959550423947806,0.0670377355596439,0.035389545670553094,0.019764785255347892,0.011576736127065678,0.006240704110881763,0.003772022632130009,Oak
323.70552141905375,10.503921553609029,0.14730690172149663,0.01351068776844784,0.9412411067226093,0.00018364741552718818,0.5660032525353271,0.22650042592700922,0.09392085495222811,0.04844730116928917,0.028343529776150633,0.017780531247552418,0.011523271122107142,0.007480833268787298,Oak
146.45996819132327,7.856163554882768,0.1575703273065043,0.017341258431719648,0.9378805206105639,0.00030237121419952927,0.5789602708863913,0.25299155775468,0.0939218900821335,0.03870256025244197,0.01769653883276741,0.010066342868509251,0.005040832273576171,0.0026200070479681617,Oak
487.0694159548128,12.72027190563717,0.17322815489476345,0.014205196954105624,0.8973768417150817,0.00020349388033475872,0.5947520932382454,0.14403727006364722,0.0884363543216169,0.061044138129675095,0.042425115668407815,0.03062613066930723,0.0226534108191687,0.01602548708833065,Oak
377.2160780709713,11.901807267637565,0.16056082087183998,0.01843873007786763,0.8790324574741356,0.00034191570733219567,0.545351723270374,0.17735398535898494,0.10322347544675732,0.06572622451213402,0.04554023060723626,0.029878412768183295,0.019667598730686374,0.013258349304072924,Oak
527.365668342712,14.265099871443438,0.11849905998691626,0.013317536231134608,0.8385007491162966,0.00017822216590733078,0.49041792107654264,0.20051147583406087,0.1070376485058641,0.06924346897143303,0.04948043119347143,0.03560907707740829,0.0273704315172261,0.020329545822374916,Oak
204.33776993825057,8.75442876537873,0.1542082612694818,0.015391751093923895,0.947795763767863,0.0002383783264400269,0.597374650311111,0.23681945341043864,0.08749116173247334,0.03819668603394172,0.0187524977711907,0.010867226167403137,0.006255956223667718,0.004242368348236585,Oak
72.67346418745284,4.893637708453522,0.2780877065160279,0.022321091734537165,0.9736571757394517,0.0005041342803518235,0.8294332249533217,0.11848391873102458,0.0311245439696675,0.011799545114542901,0.004625177451108019,0.002564454824376724,0.0013127566362880847,0.0006563783181440424,Oak
368.76573559450026,13.03968353517848,0.10264721155124384,0.011071713694729212,0.9265726469999538,0.00012315130712843849,0.4003101977504454,0.25938735944124175,0.14562233423785093,0.08468398604096986,0.051213648700967486,0.02951531601391312,0.018115548662244102,0.011151609150816361,Oak
496.51879724745766,13.537315185264985,0.12353215669302448,0.013226286852128356,0.9062623851393776,0.00017572060145322406,0.45807598875814415,0.22923646063187011,0.11838115046898626,0.07054284489454211,0.04783830557444416,0.034469618785966896,0.02443516504449703,0.017020465839961543,Oak
993.0140883316215,17.597956164698928,0.20303666917751223,0.0272192349203679,0.7940170850265258,0.0007465576990680261,0.606465031630806,0.11337204263781372,0.07016205910378688,0.05624404194461176,0.050125660802409,0.040315451945505995,0.034283733425714044,0.02903197850761932,Oak
278.67754464929726,10.854013195044967,0.12218153172094279,0.01312096215064825,0.9303093113687171,0.00017332257701765317,0.49270903833062707,0.2662277733337442,0.12233126192068798,0.05811234848942024,0.02942533686084196,0.016073955577407133,0.00950593736539484,0.005614348120338377,Oak
865.0715215151529,17.3029086018596,0.14667140413455373,0.015781288196011482,0.9230364157758579,0.00025054845096609537,0.4697116509063622,0.18396872598452343,0.10790537605648717,0.07487720939544443,0.05750275652367686,0.04410438036679457,0.03514985465596052,0.026780046109080188,Oak
234.5266765186525,9.182642763600525,0.14861276725553307,0.014943334790930156,0.9442793961796417,0.00022497398897416434,0.5688784154259173,0.24868311616263333,0.09142716323184637,0.040384437667436185,0.023072420909923494,0.013430674922198455,0.008625204078476072,0.005498567600028496,Oak
213.67961865629184,9.562635945309541,0.1385794730240858,0.013832781304768014,0.9392028595920742,0.00019231870612115444,0.5680282013938722,0.24929113341980336,0.09872020844494027,0.04291516591303101,0.021411602421608687,0.010131044524469108,0.0056709326385076695,0.003831711242234912,Oak
205.5818067870642,7.936325872260747,0.20419440566476293,0.018919267013626388,0.9325228365759369,0.00036019791250021735,0.67564744554595,0.17036342969467855,0.06965991828197343,0.03786366010255005,0.021535436699300275,0.012902829406142818,0.007634174065301167,0.0043931062025676735,Oak
790.7528720324619,15.584595528162875,0.16426260741297294,0.01650699532430531,0.7674203587116047,0.00027494392305587,0.6030933011941296,0.13879682635308693,0.0789729168757675,0.05532121455583121,0.041160322720964884,0.0331592514478371,0.026915737671944502,0.022580429178764384,Oak
307.56851823818374,11.099416600586139,0.14533878988809434,0.021869892672668746,0.8009921936049961,0.0004808612062344393,0.5139955028293185,0.21404977901804442,0.10403969915468086,0.0678297278435794,0.04314181592611748,0.028332170272112378,0.018081724432010417,0.010529580522585827,Oak
379.58855022707814,12.782071408832717,0.11900079675677169,0.01236750976426702,0.9158257795097262,0.00015386307300229915,0.45370485485103856,0.23124261826283452,0.12645303661321805,0.07795114067247164,0.04851743643928558,0.029993162180596143,0.019845216634518794,0.012292534344482669,Oak
152.95095935158082,6.620249618536342,0.2482704042477985,0.028300312766018576,0.8949321012949694,0.000809486278979694,0.778908418130159,0.10727721245743559,0.045698427381983195,0.026780758556850477,0.017437557816809376,0.011532531606519377,0.007631822386667235,0.004733271662034022,Oak
492.8864131283747,13.939026396097248,0.10327344927382169,0.010876158635895368,0.8975782613342421,0.00011934756332873856,0.4024940093321943,0.26247004666373047,0.1458569807035158,0.07895068735010885,0.04756274435608594,0.028991676125569125,0.019800731491960207,0.013873123975258745,Oak
442.898781853756,12.264025479983522,0.16859691666594695,0.01733632866359666,0.8352436841968127,0.0003025065386837224,0.6019515477783087,0.15243863359585907,0.08056143049400666,0.0545888611163645,0.03955970005761783,0.030346728193247536,0.023569185413023826,0.016983913349969584,Oak
383.34586993284023,12.472350373053189,0.12527198253772723,0.013916681347603658,0.9099810692810524,0.00019449803898934393,0.48306465376722924,0.22291353120941038,0.1244201020928699,0.0748941055994866,0.041581977005722824,0.025926672976329418,0.01643108718248525,0.01076787016491479,Oak
302.32809152430633,11.194550938941694,0.1304096061169157,0.014343106395178197,0.8875879654378483,0.00020661612218521042,0.48184476383420977,0.24854185683084218,0.1189411637295683,0.06496279220869632,0.038151523121372974,0.024274022618586452,0.01434163095438473,0.008942246700792205,Oak
445.730204533759,12.19094009815991,0.167596551627086,0.01984406288047198,0.8670734546698399,0.00039722241028264767,0.5872189874814183,0.16926591677084407,0.0857038600052582,0.05437007186931134,0.03785438911006036,0.027526137932084964,0.021814662626292117,0.016245974203144095,Oak
307.2291865808932,11.334199046039851,0.1274180911499536,0.013093224337676642,0.9195213803645772,0.00017290860947241556,0.49107790064545864,0.24877003038256484,0.12416909576007623,0.06415891670126905,0.03470133715813831,0.019386480359013268,0.010780548743794967,0.00695569024814239,Oak
356.7239737871851,9.960057024342522,0.21883268009532497,0.027840484988388807,0.9042589085852892,0.0007798535463971845,0.6646298250300571,0.13578594264274566,0.06874340520013741,0.045545458840503414,0.03242672882178303,0.023796399829875747,0.016315731451853922,0.0127565081814688,Oak
249.5210648398408,8.7189917489665,0.1745352088236538,0.019811199280448423,0.9450014526062991,0.00039564747096639544,0.6287884636158829,0.21127391190197273,0.07267365560673675,0.035958560422368786,0.021831431703404666,0.014358720993045502,0.009232811993377645,0.005882443761667028,Oak
317.141776239909,12.398831849528769,0.10053849284384697,0.011706673459474898,0.9170464954109974,0.00013796965561860955,0.42382054859566115,0.2843869305894047,0.15150028365073903,0.07446987933322938,0.034973398138582704,0.01754036276656669,0.008846843807962395,0.004461753116320722,Oak
411.0479388186037,12.63110929390099,0.13236813486836924,0.01680695402768195,0.8841223730892053,0.00028389240597491807,0.4726728889995103,0.21618955149051586,0.11695063893742648,0.07280443497858806,0.048969556502053105,0.03368516662485329,0.02297356552238948,0.015754196943097352,Oak
84.78204024594048,5.784185814951073,0.24921349566530468,0.022507518965845526,0.9809509800942382,0.0005127598576148297,0.8392729048689134,0.12835579432528754,0.024205979762176696,0.005738618152949835,0.0017093756200276104,0.00047313075197192786,0.00016788510553842603,7.631141160837547e-05,Oak
98.80732352040249,6.068526062692257,0.20943558097741188,0.019710453557532523,0.9643531016009047,0.0003904829099530694,0.7311052728039178,0.1796908413267861,0.051170037270038535,0.02118592289359506,0.009042585690705318,0.004689313863254278,0.002275921060667386,0.0008401050895080954,Oak
412.9113058529251,13.425244392180726,0.11339665094801316,0.013834651242681482,0.8232021656505039,0.00019221920238734694,0.4245068344809019,0.22589099354965256,0.12848197611442305,0.08392837526077128,0.05674738312321409,0.0380408342618006,0.025925519059609978,0.01647808414805719,Oak
474.09088805989245,11.912853259563509,0.18273522544664894,0.0180404858878935,0.8468165097170051,0.00032769633033579516,0.634501556375281,0.15328290566560765,0.07325451994246528,0.046271954582768136,0.032933890295577736,0.02533748367010413,0.019128106704483446,0.015289582762099754,Oak
253.67647982448437,10.111041982050203,0.14853300370978118,0.015856312274093565,0.9392445558278114,0.0002527684644988304,0.521865485745115,0.23392379370754693,0.11114186425544924,0.06221361134166403,0.03398222468242153,0.019420610757420086,0.011086508595486842,0.006365900913358603,Oak
253.88918919406922,9.074807015330741,0.20804538301906508,0.019419509839888764,0.8918082484089003,0.0003809482178124878,0.6429553636255382,0.15118273256778705,0.08142391421893079,0.05131097137022185,0.03145713270393607,0.020379154241891784,0.013009285725301656,0.00828144554484761,Oak
940.9124086739635,17.730910031598338,0.1260772252391944,0.015573724693463261,0.7445986443787699,0.00024374364135734835,0.5124004001232927,0.1928702010965595,0.09309785795575679,0.05986340588448163,0.046048773757293555,0.03820151081363492,0.03119933772544721,0.026318512641808976,Oak
327.1720537323464,10.758737129349171,0.16020124077325612,0.01437806291689126,0.9321296638862915,0.00020777028914659919,0.5391336737377754,0.20757996678688315,0.10168702372991838,0.062483510002541424,0.03789983393596775,0.024956156006976305,0.01590799745469572,0.0103518383436898,Oak
202.59235529904916,9.462527858876323,0.14424848044944588,0.01575072501142989,0.9162279030312198,0.00024956511348580554,0.5316354832275523,0.23504803935053395,0.111570817818061,0.06043610842939604,0.031428615210114426,0.016901883265117604,0.008458603411010806,0.004520449286681499,Oak
657.3874843509664,15.506601847846351,0.12245093212192962,0.013746427393152759,0.8900120869602571,0.00019012680789416746,0.46650207608498884,0.21052631578913616,0.11345527999084044,0.07414591916880557,0.05202238004384305,0.036439713355825964,0.027253635153939346,0.019654680411017436,Oak
173.09892554847613,7.388151417123353,0.21089525601793074,0.020277514210908447,0.9358265608090076,0.00041342876763074616,0.701176362465611,0.16099929540765096,0.06636951260597009,0.03385105535637985,0.018870814569710397,0.009894923873403341,0.0057133229176152414,0.0031247128021273706,Oak
159.32919550173335,7.875226505430606,0.17424125617818242,0.019342807393929677,0.9201524381098631,0.00037642825806281514,0.6185565430575872,0.22661661048080506,0.08533558075377669,0.03476861783629364,0.01696291756050113,0.009653692920610399,0.00502604964755589,0.0030799877413376035,Oak
236.9096785641378,10.20195755538716,0.13362355905086923,0.016594050143300836,0.8811152644849066,0.0002770334822922131,0.5096184797429304,0.26070295375425634,0.11985162249556269,0.05686782446074148,0.028357270957512597,0.013642146568749304,0.007434203467239789,0.003525498551474539,Oak
284.54495802396855,10.733350679426195,0.14863536166934763,0.014860896190494391,0.9083311201065785,0.00022185009343588877,0.5271727309440898,0.20537240157815403,0.10597209706971697,0.06483236491305218,0.04120187676717335,0.027607743218426486,0.01662368331103902,0.011217102196794554,Oak
458.34993310867276,13.319987054257936,0.1216277954150134,0.012065194183318282,0.894138744446158,0.0001464284259015438,0.49140313890764203,0.22561099398731066,0.11289138752227236,0.06686968064329371,0.042804716170777225,0.029343327867526598,0.018318107285049866,0.01275864761456585,Oak
257.5712388865109,8.29570366565785,0.23469108962007584,0.02108459783230087,0.9089537269617144,0.0004492441904521689,0.7101350090202356,0.1414328376778737,0.06335158340063561,0.03460772724439338,0.020266907235705428,0.014636346668302998,0.008990232066183988,0.006579356685113887,Oak
622.8438056727153,16.359965442978577,0.09450982287887005,0.0106282652143187,0.846804472102867,0.00011341258163059211,0.3802940847047468,0.23113969823480193,0.13990623849959213,0.09008144130291672,0.0630570089120417,0.04412870605922634,0.030416486663737953,0.02097633562133638,Oak
214.75531015715814,9.083335285707403,0.15404487023904256,0.01556212495833838,0.93137873828194,0.00024391382909021972,0.6081555661192691,0.22655543116501825,0.08595702915317993,0.039980370205591455,0.020703298725565193,0.009554188967427494,0.006011624518830782,0.003082491143584151,Oak
369.689272680583,12.247668279627803,0.13783788530943816,0.013770405583664746,0.8857255892343809,0.0001907318353372859,0.5221062470781709,0.1847484031777773,0.10772706028959693,0.06971490886420048,0.04813833930511273,0.03276211247852818,0.02107804954039402,0.01372487926466159,Oak
636.7414639802759,16.173318465254336,0.10298634583526918,0.01276057160752883,0.9093027370874098,0.0001636626257957591,0.389984581780178,0.2308878324549806,0.13890851856588252,0.09069446228945989,0.059472568418252166,0.041452524733326716,0.028154310677071574,0.020445201079242508,Oak
204.1120730458267,7.965608585039347,0.23833515342692696,0.02425145516926397,0.9321828193757599,0.0005929829369380764,0.7386374183955654,0.1256458649173515,0.05431453234730622,0.029965038210405054,0.020327341356981023,0.01386095727234018,0.010117261223337587,0.007131586275166097,Oak
220.87606095011895,9.476320105247892,0.14045352634929734,0.01517571376244932,0.9443423125598103,0.00023181147572233482,0.5521076563835687,0.25838761214167016,0.10284810126566479,0.04282905247627684,0.020154848224130276,0.011644340666075267,0.0074044488140478605,0.004623940027029888,Oak
659.8086799848662,16.39654126417689,0.11428957260880303,0.012408452107982575,0.8377538466740957,0.00015508385499654544,0.43863365981578095,0.1891592379521371,0.11724059255860035,0.0868303971576623,0.06360717719713889,0.04621828197055749,0.03376737667242423,0.024543276674068963,Oak
579.6243050449513,14.722007100634267,0.14493997680916776,0.014257565002252025,0.7975697994260232,0.00020468968853479518,0.5187774637755546,0.16691441919700914,0.09675416959325554,0.06962118365802045,0.05353088194447044,0.03992355064763069,0.03084110622861159,0.023637224953814075,Oak
683.0311597404151,13.687516520090165,0.21548299035180118,0.025547779207767206,0.8996225955130052,0.0006584421629052374,0.5780500973469379,0.1549058425088678,0.09307766561395743,0.06065018569712431,0.04203138037656119,0.030922268941884257,0.023068994289977145,0.017293565223053788,Oak
236.95827835148052,9.72028310926073,0.1532771633813611,0.01503738845699152,0.9249794396155347,0.00022761450877564597,0.5618711114516294,0.2194177740222453,0.10105230816483439,0.054044089407705595,0.029910131346447637,0.01818880098315049,0.010000768108134264,0.005515016514316745,Oak
527.4627388354472,13.895273737865372,0.16206544283540184,0.015265697474787735,0.9010874337632742,0.00023452184305440123,0.5275243531565147,0.1609015953551562,0.0996568603533856,0.06807500284583423,0.05169862256256737,0.03985949163285707,0.029435201899417094,0.022848872192641444,Oak
339.5124411734721,11.541052044285731,0.13272808371412712,0.013951710239987175,0.8974536810028848,0.00019651077810667883,0.4830366296944682,0.24068723397607622,0.1213533414109402,0.06847485009465239,0.03968993693099747,0.022493553297880366,0.014664305464916481,0.009600149128515239,Oak
764.8207870172171,14.44516556132476,0.21511329513539237,0.02757507884024385,0.9153596794311253,0.0007650846407344326,0.5805010875150168,0.15964070464367722,0.08837935213918813,0.05837719371057401,0.04034601271805883,0.02978631556222121,0.02448986368688756,0.018479470022715834,Oak
280.10174914699104,9.588489913735488,0.16827185606685896,0.017437671085788448,0.9291774585235423,0.0003054953335145849,0.5807350959518908,0.2271579697346357,0.09091894738458417,0.043554357759020564,0.025091770828454235,0.015612657404371524,0.010207084553056384,0.00672211638243774,Oak
129.42471857278738,6.977867031310108,0.17671359381722973,0.01930416895340882,0.9434967173704029,0.00037560349641880105,0.6673652328203705,0.2332650064244122,0.05996451079963904,0.01927430704274112,0.010004283179327535,0.005139815211397632,0.0029217401945742494,0.002065104326007977,Oak
224.2663645893437,9.19550809784686,0.15414384243589674,0.017648101682432877,0.9355276106814587,0.000313264987302214,0.5837667019488797,0.23885130470762753,0.09257980885745229,0.04134259898439667,0.02201359166701641,0.011060487520500928,0.00638164051113507,0.004003865801457339,Oak
428.3173878887105,12.694354830474337,0.15370761904754385,0.01645163411086159,0.9205288608159381,0.00027202741080235713,0.5371352993961092,0.17316685298582424,0.0978885547383951,0.06797247720856549,0.04781848813583817,0.035143518445568254,0.024200532191235847,0.01667427689688924,Oak
517.3121733227865,14.021165206891498,0.1428808616044529,0.014946377284789208,0.8133029255905525,0.0002244380480498193,0.5313184051359082,0.1586755954791259,0.09519562855691276,0.06994957274646936,0.05274593420126677,0.039547289737746585,0.03045092666153673,0.022116647479412194,Oak
437.5247989805679,11.458340136606102,0.19909048572321836,0.016222142454130565,0.8789443027706377,0.00026544204908861843,0.6345006443801459,0.13751571176252164,0.08042831458516105,0.04941846589545207,0.036260361808028094,0.02682534884086677,0.019570094350098533,0.015481058376134857,Oak
180.36076878484903,7.998181258410274,0.1739916145594893,0.017515544622259217,0.9408270157341994,0.00030863804501940164,0.6356057116526399,0.22430523568213678,0.07448180561941581,0.03304160908946255,0.01601412559493933,0.008552126516185242,0.0048671886995165555,0.0031321971441683827,Oak
386.69248555243763,11.508084690983994,0.15933950627357063,0.014975501830457103,0.8909835389605476,0.0002255420700117517,0.5981210690568937,0.16557088765994588,0.07840496823548676,0.052058744316389065,0.03805389648446943,0.029720695172716336,0.021973669618634093,0.01609606945388049,Oak
727.9537358077847,17.05508829236418,0.14050701346360622,0.013857636678719963,0.8114581070019998,0.00019367217719206144,0.4844147582689092,0.14930695058231333,0.10193183340012399,0.07774206508624992,0.06450046872896661,0.05040511584295834,0.04134860050883663,0.030350207579967942,Oak
244.4952714701161,9.1726728601981,0.16146580611317998,0.01470095317988854,0.9406383989712178,0.00021718986723935757,0.600581923425342,0.220376556798774,0.08768877873040982,0.041596748618252695,0.022445617870248864,0.01331650168571006,0.008621087796529056,0.005372785073194001,Oak
124.84980872742078,5.9306707456268155,0.25785968657960817,0.02084206726940944,0.9571614777602757,0.00043711136537497155,0.7928214865390733,0.12401617003012891,0.043518206596570734,0.01869659755609179,0.010106268949238804,0.005665635623058118,0.003108443328326481,0.0020671913759806645,Oak
480.7236554900671,14.511209886221044,0.10437855614046798,0.011687069636569285,0.9042231935586692,0.00013790906844258222,0.41020761515479853,0.2383908655567262,0.13851409318482816,0.08850551404625169,0.05596718089495084,0.0348780982388824,0.020745917109889805,0.01279071581211251,Oak
565.922163005218,13.734601550485039,0.14696739963008246,0.014828125994725104,0.8516800440375601,0.00022176213594793335,0.5645421410822106,0.16414540528309496,0.08931393736075652,0.061477921491369415,0.04425378189200359,0.03293229687444291,0.02470728639159967,0.018627229622909674,Oak
217.22116595781293,9.3756329897155,0.1461209485617656,0.016098186136119144,0.9145220558633873,0.00026098633983727545,0.5621164702985977,0.24099472263095084,0.09815292096204874,0.04801791850753556,0.025497054491860738,0.013316151202728712,0.007486499754529506,0.004418262150214135,Oak
344.26027834850265,10.320926386486404,0.16493862832894474,0.01981416946421638,0.946415650441459,0.0003940288756297098,0.5935670693725968,0.21721260430904032,0.08400797110461451,0.04122555735452543,0.025127662224397298,0.01673620625230923,0.01335782787393611,0.008765101507023344,Oak
771.6068700290251,17.33768651179909,0.13085933575214603,0.014103886368325975,0.807497713053365,0.00020058804532691962,0.4540807914254673,0.16430338004919323,0.11211871393221415,0.0848639736189862,0.06720527617466247,0.05037098103866386,0.038417147567949846,0.028639736191214113,Oak
719.4331844123528,14.795401017638415,0.17528390504871816,0.02152997384680895,0.876767024728192,0.0004661884850600652,0.5928546687109821,0.14353340920688218,0.07755620433127558,0.05641051016864366,0.043973807049591807,0.035149355897479424,0.02772692034897368,0.022795124284522086,Oak
841.7285018983227,17.111287125143726,0.11187022428012093,0.010086957641925484,0.8851694558191857,0.00010233538272431669,0.42899929237838136,0.2167130185788064,0.12398176641906959,0.07935228002027522,0.0568565175176381,0.03980779041249394,0.031234057959038237,0.023055276712651514,Oak
238.89469846333802,8.051387597318428,0.23174649203655268,0.020615539040989984,0.9466407201903586,0.0004269696866484357,0.6583280508346475,0.170163422439787,0.06954343759169199,0.040770574684146674,0.0258971227136692,0.017007065662708133,0.01040523199182052,0.007885094079982861,Oak
650.0268590956771,15.931421823937946,0.14284285354128926,0.017402773145578962,0.7613013156806663,0.0003050051401778775,0.4810384488983223,0.15805126519855725,0.1055701610251305,0.07997042392362805,0.06289845547147076,0.048307591192822366,0.0356391718698067,0.02852448241861892,Oak
527.642745128077,14.99611693819658,0.09888858926808772,0.011261220361703184,0.8786190887592231,0.0001274651865008658,0.38746225965296766,0.24025107261999007,0.14039408866972763,0.08723979024298865,0.05855712696637763,0.03971078976634401,0.027522644207806257,0.018862227872209023,Oak
346.988661947937,10.492886825379616,0.16446669394135208,0.015649857952485025,0.9070346381891238,0.00024644038648258997,0.5728695000459468,0.19653061861756155,0.0905911376196943,0.05280579583416169,0.03417855916054995,0.02485713393494542,0.016378852699596574,0.01178840208598228,Oak
634.3622311731265,16.016528889128708,0.1385347997203619,0.014286293885152304,0.8624863938273692,0.0002058867892338644,0.4248267354848569,0.18644397915926306,0.12723377318964596,0.08975669929056539,0.0660434013405625,0.04676113031756218,0.03327327912218066,0.025661002093740302,Oak
448.24708549600865,12.206454819060097,0.19636270844025216,0.023126991435970697,0.831593275928817,0.0005378252516048361,0.5981156647417109,0.14423525250390817,0.08074344421743694,0.058507645063172645,0.043088894962710275,0.03078926636327992,0.025660401627046865,0.01885943051912655,Oak
229.07900911008232,9.743759296304209,0.14129299090823913,0.013456561490983392,0.9411506516488495,0.0001820253796051498,0.5782856263456783,0.23387196060290263,0.0939212065249401,0.043105570944839786,0.023253308710336637,0.013542628501056413,0.008571868267145934,0.0054478301015613295,Oak
621.9845043823982,14.616518151072246,0.13368733868304086,0.014752492015107949,0.9262416170570141,0.00021921409058992325,0.4890882102130419,0.22256261251267637,0.11317626251442824,0.06883428607512107,0.04157849856292584,0.028929665540174763,0.021144553579854806,0.014685911000197886,Oak
166.064695114262,8.21503714016238,0.16250063546783014,0.01871939717000879,0.918619286964896,0.0003541741219828744,0.6215013306405104,0.23183750879411483,0.08156679208332329,0.03531553026821554,0.015906518613661394,0.0075708910709253755,0.004221345324394755,0.002080083203324952,Oak
307.72758242022655,11.50709745049969,0.1198111872009947,0.013212843397720676,0.9174601605836578,0.00017592577084486204,0.48979780118322475,0.2572460982543903,0.12271853617264132,0.06336587991071982,0.03261320827241852,0.01854386099789568,0.010194510648096879,0.005520104559075083,Oak
208.88150673720625,8.216552392709795,0.20742350911294752,0.021425882602608082,0.9463328877979094,0.0004628077070185832,0.669830915271982,0.16936166284571694,0.07406495684404808,0.04006338754090179,0.0218317768512057,0.012646737541713238,0.007431112205167268,0.004769450897726403,Oak
745.024266162784,14.52624031322227,0.16884521094265043,0.01761628676703647,0.902092446800989,0.00031191590625103777,0.5613559322024616,0.1735923935507671,0.0870938404297857,0.05708143861090189,0.04257957833808585,0.03231087226121156,0.025646961554318896,0.020338983050813827,Oak
413.88168188019023,13.495817338883798,0.11542477258237077,0.012816452092334722,0.8744696747980598,0.00016512656574159198,0.4391658998386712,0.21591777531666184,0.13497200430442008,0.0843925947875222,0.05518037337982878,0.034717781555539534,0.02211581951741018,0.013537751298386485,Oak
459.7121037131135,13.178600583308896,0.13075184203585635,0.012226142006337913,0.9070790723777957,0.00015047207469658634,0.47805647578406996,0.21463953304903827,0.11214702634467243,0.07310301309343255,0.04891938791599792,0.03353841299884282,0.0237734658463105,0.01582268496605802,Oak
332.7340276276462,10.849119899798737,0.23703869908030428,0.06652968588754633,0.960753320021827,0.004429199702064944,0.5401456417330422,0.1732006654317882,0.10661037697337235,0.06899149376931324,0.04662732665801402,0.031137198279872033,0.01920964248717912,0.014077654665849402,Oak
470.00934053310897,14.753673301734764,0.09011302488615504,0.011245589121927892,0.8632752497552819,0.0001269570517463664,0.3706107765693742,0.2617658559470372,0.15628372565862786,0.09207789160852103,0.05321029170242714,0.0329397043872168,0.019660592789521137,0.013451161335710563,Oak
221.31914576124743,8.849261461937637,0.15976614974651868,0.01892229869153192,0.9352831930554011,0.00036047655959675894,0.608709032157857,0.22626557931954722,0.08078165871660135,0.03902138790577162,0.021449453762084243,0.011863363594380885,0.007493460532378068,0.004416064009840874,Oak
262.87897209007053,10.599477604767358,0.12775888159644097,0.012873614591137334,0.9334425867796192,0.00016723817625434456,0.5176962478392407,0.2559707479630709,0.11248765736837743,0.05620525796091057,0.02730807208092553,0.015397432732634848,0.009658109108847108,0.005276474944450018,Oak
261.320654570974,10.039444249207229,0.15813775768003568,0.016065229378431196,0.9280365883651556,0.00025972332622247753,0.5855921552798473,0.19858497152845017,0.08905990597494366,0.05227226885532843,0.03266047074516662,0.019829017393027525,0.01266078105845889,0.009340429163225798,Oak
220.49826091527405,9.22508518358316,0.15735891318875755,0.015754284946361545,0.9437876199148418,0.00024983178369778814,0.5908790685520009,0.21696388799253957,0.0938973626405943,0.04680275870536411,0.024745403437591594,0.014500099841766893,0.00812558561048166,0.0040858332181249925,Oak
603.4595179137949,13.555776774557557,0.19043943125048945,0.019647163308094337,0.7865233448127334,0.00038860757025555763,0.6570347044320236,0.10409698314525592,0.06470981742227037,0.04937264435698188,0.04113299286977903,0.03383967759298758,0.02788428592401918,0.021928894255050776,Oak
372.16684162941664,10.109118127643072,0.18822363489718008,0.019084596302828348,0.9178686404596399,0.000367988427983365,0.6235970006721504,0.18395140965203433,0.07848969177051315,0.04336187598809762,0.026799830935604015,0.020162489629122645,0.013963463314578727,0.009674238036333691,Oak
364.65929118309043,11.098804230944662,0.17071313867696053,0.01575374301776323,0.9027506416186443,0.0002497623541991747,0.6415985094883607,0.1435879622317498,0.07626235513298345,0.049152114188194096,0.03394701108404025,0.024662898285242266,0.017936653298358012,0.012852496289492449,Oak
264.8447663158538,9.070924344002512,0.1940793499766898,0.01823276091196456,0.901785777795762,0.000334701348713884,0.6976526990836535,0.14399788307056846,0.06464416910518547,0.03516281676104358,0.02398667579848081,0.016017059958881738,0.010491252101347222,0.008047444119282661,Oak
660.8299671851602,13.316661425293692,0.17998953646965482,0.018583121714966663,0.928658861607001,0.00034702575798607407,0.5624467897120421,0.1971149984736525,0.08603601432848852,0.05137101826409752,0.03619102693840266,0.027998650667392738,0.021862400205577462,0.016979101408740174,Oak
477.9763887086726,14.221176590734121,0.13233250280361764,0.015113857146129549,0.7633913637571994,0.00022972936648238892,0.45744783152152857,0.18211687021158746,0.1144981889282391,0.08234766163399951,0.061656569541844314,0.04519665352430491,0.033208321312893536,0.023527903323999858,Oak
390.3413694252441,12.709599192618093,0.11882962932122094,0.013180133773598912,0.8757571551189072,0.00017491678633745777,0.4690676370930025,0.23414167398633118,0.12319613502302171,0.07137030995094841,0.04349667461406152,0.028579495545192967,0.017897477726160908,0.012250596059712243,Oak
802.0583491475805,18.683025834414536,0.10615171161653666,0.01070026330582812,0.8394455117719848,0.00011519691983759112,0.38244592763523116,0.18552717418546774,0.1256419263643538,0.09553202522524626,0.07455546076500133,0.05938341613546213,0.04315752496605417,0.03375654472151059,Oak
251.03853360186275,10.615405027513374,0.12309678331213292,0.014351790988322425,0.9056591340282538,0.00020726716159728337,0.48503196980127106,0.25383252445843335,0.12330328942281288,0.061366612741604855,0.035467221323418126,0.021431322702378196,0.012202449734208146,0.007364609814332694,Oak
655.548980935859,14.524639967200464,0.13933278737674937,0.0170088867162944,0.7375502669747744,0.00029116095669290344,0.5691870643798613,0.18780761734848245,0.07863442671674654,0.050011561457321684,0.03874739867202004,0.02997720741249632,0.02508836256726276,0.02054636144415726,Oak
397.01663033754954,10.858961622333698,0.17190217113267886,0.020160929218522507,0.9399031809241603,0.0004090406593854251,0.5985186340237042,0.20126305941025843,0.08646499298286844,0.046218618431239325,0.02755340714170037,0.0187587712458775,0.012303134258518162,0.008919382504274256,Oak
225.1087213151248,9.235226595540116,0.14423438453862342,0.014342431573478753,0.947985256101503,0.0002065645555766602,0.5592356491738124,0.2534953190437092,0.09562084257191485,0.042513550135435896,0.02171101256463767,0.013488543976328085,0.008468834688333843,0.0054662478442882075,Oak
340.15217266196737,10.123669381968483,0.167445378271818,0.01910438170515805,0.8530001800586374,0.0003670733640062965,0.6492831683158031,0.17848712871258854,0.06279603960386092,0.03637227722766515,0.02590099009896887,0.01996039603957234,0.014780198019778566,0.012419801980178344,Oak
476.28679803142995,12.962882830522213,0.15575737352441377,0.015787548352214065,0.874410849559519,0.00025062698244066576,0.5631596757810349,0.15928904072037112,0.08745185877485626,0.06141128317504647,0.04716631483950696,0.03622476110666609,0.026378974168866722,0.01891809143204003,Oak
353.50858706688985,11.135919342920918,0.17477285215416416,0.01591346267764754,0.9005342693500695,0.000255184546107183,0.588276681571362,0.17051815253733618,0.09151318052457626,0.05725632446283927,0.03749335501416946,0.024797523374675886,0.01865286594324611,0.011491916570231258,Oak
382.74536072365015,11.642407262230833,0.12868444876968688,0.012398078294701697,0.9198827625432957,0.00015467327373227548,0.4853093025431251,0.2515253919079891,0.11422447510855435,0.06135986732992058,0.036296504896842365,0.024093369629800535,0.01606746143493841,0.011123627147265053,Oak
392.14167154759974,12.084377508049299,0.1422716616132688,0.01375817456153212,0.9376897336859078,0.00019041495631104538,0.5276079390453585,0.21937415733825702,0.10376885209904403,0.062113943498475974,0.03508606904330874,0.0241275515002914,0.01642993760383716,0.011491549869859386,Oak
544.9668459847271,14.046441392733305,0.15789307364550098,0.01408699836559057,0.8933167820388062,0.00020041062639198322,0.5113463478684378,0.16736864019959424,0.10616081866645395,0.07185753407095774,0.052784139134806486,0.04051695145966639,0.02892237720796739,0.02104319139051448,Oak
349.9718274972368,10.945607233395574,0.15730576941650332,0.018470519380897457,0.9003141571044432,0.00034308076121013806,0.5698694728944388,0.1991787409439808,0.09477267049697918,0.05386585061195687,0.033318760929251,0.02354484136893651,0.015613290032451266,0.009836372720444297,Oak
507.2066455209776,13.666599504998175,0.1605755068929803,0.016437953214496565,0.8463052738813563,0.00027212578808439425,0.5605145195859148,0.1441401935942569,0.0876859611510302,0.06389267849011906,0.05091600077949244,0.03881634509186186,0.0313129344506735,0.022721366855027087,Oak
235.95012543253193,8.681236693819793,0.17179095658497973,0.015055558650771048,0.9557644595892278,0.00022786105519834003,0.6260687703748753,0.21258534784982994,0.07919665374903243,0.03555391523645883,0.020791043857998414,0.012486928707614432,0.008319493141403211,0.004997847081249619,Oak
444.15258871287654,13.439692410971514,0.1183812099988058,0.013698204453532684,0.866258168268425,0.00018870474621780965,0.44055965944591124,0.24082884687579686,0.1325904594964746,0.07548203330400106,0.04723300363082629,0.030252284963017635,0.019030925253507212,0.014022787028900053,Oak
774.2618505352589,16.58999908388572,0.1218191741331216,0.01290305708986773,0.8280615761205562,0.00016717785785057206,0.44528573099927243,0.2144110715535703,0.11460997175263733,0.07374350231480763,0.052633338347536085,0.0418358989786862,0.031489745775407425,0.02599074027641112,Oak
341.84788604443804,11.866387732482465,0.1239889836527937,0.012199505442236705,0.9280767618638215,0.0001495166660288867,0.48240669041275763,0.24477311444905564,0.12250271023676242,0.06600588508585101,0.0391358215889126,0.022843425739472133,0.013628620102193545,0.00870373238344633,Oak
205.29077407127693,8.591754102989285,0.1612882633618743,0.01868073098706384,0.9012107479227389,0.0003509504227465821,0.590669827001492,0.23216154651198645,0.08828418395602985,0.040340454349503875,0.02170165609797805,0.01371359970446698,0.008588314966433867,0.0045404174105698756,Oak
458.9527300948002,12.567977926158026,0.16461503008278533,0.018930289756817435,0.8015060060040795,0.0003605173723729867,0.5696911196902031,0.16399613899587517,0.08801480051465892,0.06008687258677592,0.04361325611318595,0.032931145431092455,0.022908622908586054,0.01875804375801358,Oak
299.14755169286434,10.810233924451955,0.13955295082280852,0.014310987717332186,0.9046955130525234,0.00020564728038818982,0.5199096562598312,0.2346152656164187,0.10582902756705265,0.05988366696565718,0.035070078277226774,0.021611336282878604,0.014015655456183261,0.009065313573204626,Oak
623.4517628436515,15.562152237120543,0.1653178004652272,0.016806149389522324,0.8093357598690899,0.000283928416197099,0.48185006006610304,0.1503782590341401,0.10930549693154111,0.08471054254994527,0.06435273872517881,0.048102211110672255,0.03542322802682648,0.025877463553969485,Oak
624.6255489475345,15.969297085255542,0.10997212405713724,0.012680831140866862,0.81102299264432,0.00016157825424233322,0.4180216691444805,0.20381416175019396,0.12065105485901875,0.08494435638049296,0.06134688608164112,0.04771787622759512,0.036866961907347465,0.026637033647595905,Oak
419.81681324490864,13.312235017781363,0.12083389707739786,0.014585846568828772,0.8408525775661662,0.0002137831876255703,0.4462947543706561,0.21309286286551601,0.12516299310303494,0.08167721866984796,0.05573971376045789,0.036903209589435056,0.02468069061941357,0.016448557020067478,Oak
407.2605975916928,12.79460812848411,0.12182364463561389,0.014642595122975523,0.8657884638927955,0.00021594794382337834,0.45235089933661665,0.22909435153008978,0.12081098138194886,0.07589144840631762,0.05074155885129261,0.033117702745293284,0.022593878194978552,0.015399179551884823,Oak
369.22079245363574,11.974330636053349,0.12783786541219144,0.012376072510406691,0.9168964688458612,0.00015435680334614798,0.49552919991229855,0.23592784625378632,0.11586823558614694,0.06419013319248627,0.03905740631494449,0.024201310192765686,0.016066937812387737,0.009158930733631658,Oak
766.210856311284,16.152444913013767,0.15045185106594372,0.016431318238269342,0.7830524222905829,0.0002721565564202501,0.54105093075615,0.16257111118564216,0.08535025414871016,0.0609620628133757,0.047665533375891765,0.04123607230612106,0.03391456559054446,0.027249469821881627,Oak
825.5082151396418,15.53556456651268,0.1772207684168466,0.016920739534882358,0.7594426185618858,0.0002879726001562332,0.6667061651476678,0.10112739953261819,0.05728408436866086,0.047906016183011296,0.039018857703830755,0.03473609371291137,0.029048312286235826,0.024173071063371073,Oak
499.99001452266316,13.317173157559093,0.15694463154124333,0.01326822287212337,0.905171497921057,0.0001772010700001868,0.56018697614352,0.15225660863934196,0.09339136041248647,0.06350741457114199,0.04637330754344556,0.03579948420368182,0.026821405544766568,0.021663442940003767,Oak
737.4154648152299,17.064138822808392,0.11237681604672142,0.011094094497167618,0.8417830237226107,0.00012378583240565787,0.432820915802379,0.20061228164923037,0.12034444935559756,0.08144655632486707,0.06112993795317661,0.044824255521102724,0.03338080971787014,0.025440793674139383,Oak
380.44815027574725,11.196041411355965,0.22363355443865007,0.02207670905066899,0.8413432938390142,0.0004915855664859561,0.616903381949212,0.1249601936180419,0.07919877714782625,0.059215973504778016,0.0452678173364033,0.03351697344112872,0.023740526081103528,0.017196356919914023,Oak
121.23817510092462,6.541467824875043,0.21406635295622073,0.019831191654328634,0.9564422553819891,0.0003969523881265615,0.7654483222285229,0.14837112645903616,0.04697145651236634,0.02093392824396288,0.009122303037697692,0.005149440743222986,0.0027046024081616273,0.0012988203655013464,Oak
410.734796127113,12.103812911500523,0.19858537642778876,0.02082654234722187,0.907162328183672,0.0004370789056383188,0.5627105714821646,0.14260059754601964,0.09373212128902528,0.06951242769043686,0.050155743436446895,0.037489670078129984,0.02593604983785847,0.017862818638328996,Oak
158.74702151816973,8.145480223952333,0.16490328472635896,0.016511339421837745,0.938874853873729,0.00027375900408649844,0.6534163962519846,0.19111614522716108,0.07948631604714461,0.03972019837133454,0.01937794648867419,0.009704279679162273,0.004729688360979719,0.0024490295720283337,TazeYaprak
184.10206337406586,8.437266390931338,0.16644819839613578,0.01558562164443541,0.9518296078673391,0.00024388312062522386,0.6456610777882071,0.1898786605099175,0.08202304069692429,0.03974596941195639,0.021383975824109308,0.011827148752071933,0.006197364586040287,0.003282762429239162,TazeYaprak
190.2131421808969,8.793621864186877,0.15554347419430803,0.018046194794307458,0.9343216843218611,0.0003269787115468556,0.5930594531588336,0.22353590651849606,0.09242305745948931,0.04520709696209963,0.023002254220878374,0.01274324883836662,0.006563309871023963,0.0034656729692790086,TazeYaprak
166.78581854034806,7.853631971477347,0.1681391163997547,0.015812655176654058,0.9613994253933824,0.0002509950010360124,0.6378142244012296,0.22559779276482894,0.08015021459215182,0.030257510729567356,0.013304721030022525,0.007142857142846194,0.0035101164929437307,0.0022225628448770346,TazeYaprak
155.19780458538054,8.010546739835636,0.1548827222869355,0.016012693575932855,0.9527378357807696,0.000257546680602737,0.6505732698567964,0.21689347436708115,0.07312443553190393,0.031763283175361236,0.014220766298752092,0.00710272934620126,0.004194284139782641,0.0021277572825904637,TazeYaprak
157.18238291763168,8.270897371203388,0.1539339121486834,0.01634644013528838,0.9428092539569269,0.00026847525029017634,0.6322655723638264,0.21681876646013226,0.08032706559674109,0.036902064065601606,0.0169963863538663,0.008590065535602699,0.00554296563972937,0.002557113982969074,TazeYaprak
184.79970624279747,8.918859393021961,0.14749013925531665,0.016626326472966378,0.9028161303671245,0.00027772035809376863,0.5943312394659195,0.21748123180600967,0.09554159644538755,0.04603952811391751,0.02405392982990033,0.01274705071240578,0.006342883407374992,0.0034625402175525316,TazeYaprak
137.02422735546673,7.621787969170471,0.1634533574853299,0.01741264764160268,0.9437613601219459,0.00030451437853328553,0.6626236638171726,0.20535085301202893,0.07383074519882105,0.02970994517438557,0.01376764985142919,0.008499494624630923,0.0039511164200987,0.0022665318999015795,TazeYaprak
123.41149482771291,6.930208483515997,0.1887337252446527,0.019390196462026707,0.9514573990455781,0.0003777673139941364,0.736877544148476,0.1589232699780263,0.05646864383427223,0.02443913935049668,0.011798732898705661,0.006457931625491296,0.003320784745809505,0.0017139534171920026,TazeYaprak
163.44656391172126,7.729624122933521,0.1802524162178037,0.01672806351151244,0.9457727067004233,0.0002813525165263656,0.698458190288287,0.17211255517384116,0.06633153506610727,0.030682932810154055,0.016582883766526817,0.00836807258458747,0.004505885237854791,0.0029579450711087574,TazeYaprak
145.69766685289636,7.345277267156838,0.1856445999700459,0.01710835995967585,0.956665215515778,0.00029400088673602607,0.7189495444441942,0.16886915243829895,0.061266365515563484,0.025786693208750038,0.012587091340613143,0.006768241329137481,0.0037516269810829927,0.0020212847408283877,TazeYaprak
226.29999298647658,10.798803570141104,0.10824236212529013,0.015581606658622864,0.8714996726772469,0.0002436903617124716,0.4648540302336972,0.2768070261333668,0.13986474080399677,0.06629842707621902,0.029867188934405615,0.013694228532937,0.005737805251230586,0.002876553032616934,TazeYaprak
182.08168369738038,9.46997534001342,0.12427231828850291,0.014703869325576215,0.9386964936859047,0.00021690809735397344,0.5272869022860962,0.2761403937870305,0.11324446618546954,0.048015775956879024,0.020805307569981647,0.008453589335929355,0.0040662834780419675,0.001987281399043067,TazeYaprak
186.48743124640635,8.229948817762542,0.17569622027729098,0.01602926023365433,0.9463560798438427,0.00025816908761502454,0.6984027127787605,0.15814831295143977,0.06657664983955537,0.03320393414445675,0.020269129854356454,0.012259678087532783,0.007150200236283199,0.003989382106080755,TazeYaprak
159.2089340938632,7.98545805699727,0.17713795388942583,0.016223650498355287,0.9534245526877,0.0002644516327532749,0.669054726367135,0.18250287026378492,0.07667814772280646,0.036785304247934504,0.017803291236099802,0.009368541905840997,0.005495598928426337,0.002311519326441161,TazeYaprak
128.50507084114457,7.187893163086285,0.182800582356009,0.01746796503443131,0.9637668506137685,0.00030651491638527905,0.6858169584820157,0.19613120269103734,0.06934780946544943,0.026683997247455182,0.011835767260475822,0.005596758161930428,0.002890129214767352,0.001697377475339556,TazeYaprak
147.22371063713854,7.668529276600347,0.16818877906129648,0.01671764339118774,0.9513360011937686,0.0002805934627968715,0.6734743868448613,0.1937291405122727,0.07160353960612449,0.03193606662783316,0.014926972656825183,0.007762025781549095,0.004179552343911051,0.002388315625092029,TazeYaprak
139.9768428308841,7.320295439254067,0.17792474630136967,0.01846671610233973,0.9576982099422666,0.0003424367193213271,0.6860655612195335,0.1993630670766932,0.06730666176707958,0.02524765360644091,0.011697518105106644,0.005266945324812416,0.0030162448517094356,0.002036348047093172,TazeYaprak
163.10025835916846,7.587687142565345,0.17734906426025518,0.016493342503706723,0.9578134063456056,0.000273592405369516,0.6914019379358957,0.193747700232746,0.06489942352498329,0.025711394578643274,0.01179013859927053,0.006470011038871473,0.003480313994843186,0.002499080093213389,TazeYaprak
144.2749014651834,7.901341085760215,0.16467068201135285,0.016865280590103143,0.9510923118899107,0.0002854483600731162,0.6655901305608718,0.1935162934501806,0.07827590957084739,0.033137924173031796,0.016423553181368643,0.007392894861697162,0.0035357323251595124,0.0021275618753124337,TazeYaprak
160.7629451112589,8.052209366589786,0.16413564312376316,0.016513671081084678,0.9448318070420632,0.00027383452899319607,0.6300082642088856,0.22396008692690159,0.08247375348155478,0.033623090814432335,0.015288788221947156,0.008126473018872813,0.004070888555593537,0.002448654770281827,TazeYaprak
180.52314824827306,8.242109435072992,0.16619104281272415,0.016057406066352684,0.9595081276448643,0.00025867860555558975,0.6263921700969128,0.22079894455830884,0.08517166262681378,0.035498419906060355,0.016613996870468176,0.008222624489908535,0.004602215199575673,0.0026999662504177276,TazeYaprak
135.66764801999472,7.825529994473216,0.1542851324296649,0.019035487452218246,0.946968637373592,0.0003635520397808451,0.6101233699713969,0.23533548377197905,0.09273386024170618,0.03650650482314447,0.014477244584387695,0.006359592129995017,0.002705884151464226,0.001758060324397661,TazeYaprak
157.5541469176549,8.033537416498378,0.1664478745183651,0.015262390675741606,0.9599760205846576,0.00023383721920635644,0.6309409009495783,0.21328312745830727,0.08726332062866439,0.03721051262029173,0.01700570938755414,0.008326827998946401,0.0038113606098118635,0.0021582403453151515,TazeYaprak
134.94244293060476,7.196662972174098,0.17189068931749088,0.019578231332809615,0.9559329801485389,0.00038471809608630914,0.6638867635797033,0.20755929609761659,0.07407804131587746,0.029961744452899827,0.0133435348125274,0.006258607498077645,0.0031981637337364986,0.0017138485080310424,TazeYaprak
304.4761928855596,10.861545904820158,0.15371817208416094,0.01953197618567921,0.8083076906336278,0.00038294394102778316,0.564602464483848,0.1859979593435586,0.09434110352390811,0.060277843183328975,0.03797190173449812,0.02657562200764999,0.017894984695050787,0.01233812102658765,TazeYaprak
153.3279351992044,8.02205284626098,0.1639185235334889,0.016482035396439578,0.9609309805082316,0.00027270489499564804,0.6493421052621644,0.21774785801680271,0.07932986536095574,0.030813953488324948,0.012148102815158893,0.006089351285180402,0.002876376988979687,0.0016523867809032245,TazeYaprak
167.48232895701486,8.054990283184328,0.16595491616807914,0.015896051019356792,0.9492856377201193,0.0002536591260331802,0.6612574510785313,0.20495257359106797,0.07611210714219324,0.030800349377050215,0.013653289201468528,0.007140777517266368,0.00376959499838525,0.002313857092504767,TazeYaprak
174.9760761335837,8.578994001706135,0.14910147839165058,0.015179807728833318,0.9452152684392514,0.00023135610116345497,0.626538526385821,0.2182676537756652,0.0829846262318435,0.037691022516457916,0.018040802562777944,0.008997409604376087,0.004659646541278246,0.0028203123802473594,TazeYaprak
217.88373510188848,9.961763834823024,0.1220941338465562,0.013725284470539082,0.9418776496563538,0.00018905954956792857,0.5396244332794087,0.2653933341498202,0.11181227790694796,0.04481681166516846,0.0208460972919666,0.009358534493307563,0.005177061634595673,0.002971449577253138,TazeYaprak
140.55751248017927,8.123189833837975,0.14658445009130544,0.018022996897621924,0.9335074526562406,0.0003259687774738358,0.5874623764333815,0.24477853661480378,0.09733999480512545,0.04106889123154563,0.0166231226413399,0.007624024079070413,0.00366686528853086,0.001436188904674587,TazeYaprak
164.21858930459683,8.410276726499351,0.1502002979593843,0.01700572158938912,0.9565677242717885,0.00029016410625410755,0.5963354625743508,0.24604969589497533,0.09314159968199953,0.03855557932693763,0.014624530089528066,0.006815611724064281,0.0029493566429246777,0.001528164063691543,TazeYaprak
143.01555525519447,7.8223127823432685,0.17158230316312278,0.017809674757399755,0.9465319390681995,0.00031843135788649853,0.6471344009534451,0.20495877881245514,0.08209057954376468,0.03556187766708643,0.017146178436474792,0.007586533902311772,0.0034873583260626694,0.0020342923568698905,TazeYaprak
156.65645262639782,8.455190341455214,0.15032220371603353,0.018063871015051226,0.9150023750507933,0.0003275103754480661,0.6039434204877167,0.23525809809528617,0.09457473516610346,0.03761251607366724,0.015384850897043376,0.007546996509693915,0.003827077337572979,0.0018523054313853218,TazeYaprak
144.33514372477197,7.9688207660515,0.1627213907356075,0.016681745054255664,0.9524085409321628,0.0002793407742720735,0.6124701853088306,0.22081218274077913,0.09239496055273011,0.03930952235331278,0.018638003791788517,0.009632438382958792,0.004693902513600553,0.0020488043544706,TazeYaprak
184.6148914029526,8.5686595149702,0.17248461913432436,0.016182584797547382,0.939802535157196,0.00026294523207947835,0.6167057345519193,0.1977447871180191,0.09531032158217997,0.04421565473174271,0.024359976099608768,0.011842931776728037,0.0066185595440446466,0.003202034594225304,TazeYaprak
149.551979932604,7.743167756992506,0.18419360826041453,0.01621182122421278,0.9598052920306359,0.0002640264439834449,0.6635441061660413,0.19569576464435612,0.07703846565936992,0.03339915201047987,0.016362829284694305,0.007944161271053643,0.0038725872862747047,0.0021429336761994416,TazeYaprak
152.12478806229257,7.217468731978213,0.2083494819895036,0.017106150000086834,0.965236263015655,0.0002946492456800875,0.745070098826714,0.13570826629872718,0.05684516969270383,0.03023059832983953,0.0159197119435901,0.008549758676153298,0.00511759748715986,0.00255879874357993,TazeYaprak
216.38880585292992,9.6055845858565,0.14167909719007382,0.015509331427048911,0.9289169776901629,0.00024143168973121958,0.564712380893062,0.22768631181589355,0.10452181117931579,0.050972028293847185,0.027035735657362656,0.01341046138736377,0.0077179199975331535,0.003943350774087515,TazeYaprak
249.45412069577344,10.22485493860518,0.1472843602907676,0.01445471521822192,0.9347974710572718,0.0002097856951061457,0.5278697104497516,0.21927866631741255,0.11783630682062429,0.06323599587447741,0.0352508350906897,0.019595769899758947,0.01057525052720691,0.006357465018539234,TazeYaprak
231.82039649714957,9.831408697976759,0.13804302932178553,0.014208019717918897,0.9359126647579379,0.00020264102316646244,0.5547886241344276,0.23471176018411266,0.1065334358184373,0.05306687163712057,0.025441967717101548,0.013543428132185176,0.007809377401986457,0.004104534973091307,TazeYaprak
255.2227064860911,10.572273539623906,0.12851305279793374,0.013211182105224064,0.9362680846590757,0.0001751222558989875,0.49961555022375037,0.23592913821702047,0.12350064587543289,0.06860121793678323,0.03583071907480496,0.019253244756075455,0.010841483668556865,0.006428000246037971,TazeYaprak
231.8582188190902,9.82318049247877,0.147203849400161,0.01391224367374436,0.9505976178991605,0.00019423647104527635,0.569578442818519,0.21809131690496822,0.10614207583096825,0.05298654212491091,0.02726909604862768,0.014103115590219838,0.00751244392550926,0.004316966754740495,TazeYaprak
248.82685041511104,9.851273233251593,0.14770668104574164,0.014064578937833203,0.9354906975532695,0.0001985070925050451,0.5583423035513481,0.2181608488386619,0.10632015992602442,0.05432877133622278,0.03147777948634249,0.01671536214052481,0.00931877594954741,0.005335998769790349,TazeYaprak
211.00839333130097,9.54807359248855,0.14157848972731335,0.01398720529453232,0.9447561016164459,0.00019642475444871208,0.5569587273359639,0.21822556667501689,0.11238486413567658,0.056491287222706105,0.028843353921088687,0.015111342702546994,0.007908167174963742,0.004076690830504564,TazeYaprak
151.98136679702912,8.153909058415026,0.153595061427506,0.016261049794277685,0.9502839969142479,0.00026540860235706306,0.6469446694059763,0.22344635789889913,0.07594395122461386,0.030973518940099056,0.01272863407849162,0.00553153125619924,0.002826887520433313,0.001604449673759448,TazeYaprak
164.57113697256116,8.360362721068794,0.15373072076271554,0.014945988020902896,0.9627422735910399,0.0002241069500996609,0.5691172643912245,0.2327991305808379,0.10578439025867385,0.04957830126578565,0.022929390335334022,0.01086773507215431,0.005923680947779885,0.003000107146679218,TazeYaprak
183.39834832156237,8.873677521866554,0.14590261832182336,0.01390619697550853,0.960851023633062,0.00019418212243501505,0.5907713498613548,0.21232017141075554,0.10359657177823141,0.049372513008801085,0.023599632690505662,0.011600857055384755,0.005953474135283206,0.002785430058153068,TazeYaprak
161.12147908857244,8.009786710639938,0.17146114275906627,0.017172379529224964,0.9704674439658393,0.0002958558641152763,0.6129827948083942,0.20381180003339336,0.09733265922063805,0.04588561535743916,0.02131114890223635,0.010433423725681491,0.005484824807333295,0.0027577331433519363,TazeYaprak
169.79051889599208,7.060031132857832,0.26162438571813557,0.02463511231922704,0.9483236048887994,0.0006097878768854559,0.706001659443923,0.15163947020658303,0.07124857871597177,0.035063458406264306,0.017593190129348218,0.009449617405719785,0.005715866138093918,0.0032881595525594046,TazeYaprak
234.16547450200284,10.050759638720614,0.13452826415126876,0.01508075980896582,0.9150785875164501,0.00022820089266350438,0.5172259852208787,0.2244612068962062,0.12349137931015472,0.06556342364521926,0.03455972906398621,0.018765394088641064,0.010360221674860899,0.005572660098513589,TazeYaprak
155.8531737342652,7.677501576917519,0.2006378109527109,0.016317980171750776,0.9674201299681826,0.00026770483294798116,0.688638175239609,0.1510055797410157,0.07699736341885309,0.04132687473167986,0.021598503893522598,0.010653626831794325,0.005717701882387459,0.004062174259605031,TazeYaprak
243.26814173034882,10.377791324250058,0.12175392555965087,0.013865481497720744,0.925674410187985,0.00019285825297930554,0.5201409404226364,0.24262986213650506,0.11561422944344595,0.05974581486943047,0.030880723781340963,0.016217380600664362,0.009031880846859564,0.005739167897578564,TazeYaprak
180.39788876274403,8.156400513023947,0.18570401499963238,0.018198882933746052,0.9595872248880458,0.000332960386775517,0.6801978221126416,0.17570535563412784,0.0712497504184195,0.03558647805981418,0.01798522477688494,0.010167565159946908,0.005605983811753205,0.003501820024875974,TazeYaprak
230.8520651161842,9.683687719266516,0.1413528768105908,0.013882797397128848,0.9484295403535985,0.00019341413649068414,0.5390460369456277,0.22360143355909803,0.11405411225429675,0.0585729008043644,0.032055127436001946,0.017227323765989528,0.009505791149447794,0.005937274083635677,TazeYaprak
152.01382124663832,8.013247789311716,0.15580440707634052,0.01608715300996776,0.9580669655533249,0.000259628892697168,0.5916006557669394,0.23860450150881976,0.09479522576478956,0.04116935051397924,0.018064259120201535,0.008702713469274361,0.004535216878354244,0.0025280769761096295,TazeYaprak
281.03205470853175,11.314409421856775,0.11311788949346163,0.012348679548472082,0.9286409775741448,0.00015312106469051476,0.5048862445272444,0.24007337073765325,0.11756273506363284,0.0640298415437696,0.03465071829330623,0.020161538935784942,0.011730069671355,0.006905481225712273,TazeYaprak
267.05290851176255,10.966517039720133,0.12665175037343923,0.013259711801036123,0.917434047689989,0.00017651189575152918,0.5559217111434486,0.18421903632611494,0.1091947827959944,0.06698594065189334,0.03960639985210797,0.023421980627937877,0.012966014259515905,0.007684134341447075,TazeYaprak
164.50061986375903,8.169395364763517,0.1779913630266879,0.015616843390388001,0.9662492799644193,0.0002450497782767574,0.6334714344672403,0.20320741159712707,0.09220161746481143,0.039213587928575905,0.01735182155903846,0.008362507835060826,0.004234761737315995,0.0019568574093012537,TazeYaprak
244.09419264826982,9.931512278931152,0.15279051554180564,0.014864184944527858,0.9305415700667743,0.00022170278936234347,0.5578827230936212,0.22113575372432656,0.10470711619713022,0.05453592029357084,0.028470958388555366,0.016934513711069226,0.010163792837517869,0.006169221752666385,TazeYaprak
235.61319791367254,9.890507692353893,0.1370878870970409,0.014155577149491625,0.9276591813091215,0.0002012879205024054,0.6031372549010332,0.20998077662405232,0.09313341022669261,0.04505959246436746,0.024190695886160414,0.012272202998827725,0.0077354863513914105,0.0044905805459369615,TazeYaprak
163.2747729839551,7.5323893754806015,0.19222914232440647,0.016622046302860165,0.9595239837025834,0.00027742825303549384,0.6813525532883279,0.17478914276924584,0.0751111792668684,0.03424321423089366,0.017497316362494252,0.009492409139687942,0.004830547462038291,0.0026836374789101615,TazeYaprak
183.57560747369098,9.609280760404495,0.12310276996443015,0.014770045480072064,0.9371577337938243,0.0002187932816584067,0.4580061532802835,0.2772956177002077,0.13984172904112926,0.06676769068272831,0.03281749858408287,0.015674029174487344,0.006551254381524006,0.0030460271540263487,TazeYaprak
495.50131124449774,14.768110912869938,0.10324424117143131,0.011811683295669218,0.8726141801877803,0.00013963536487884642,0.39791093117344467,0.213959514169694,0.1289392712548519,0.09029959514155417,0.06432388663957195,0.047465587044457545,0.033214574898731634,0.023886639676074677,TazeYaprak
269.58796376394383,10.799170541378007,0.13803475970661375,0.013986262107033586,0.9151298118865168,0.00019625127742554604,0.5062473937008568,0.21750814709528238,0.11937232613075606,0.0698719631796533,0.04102120561564085,0.023892998903387194,0.01377670007874685,0.008309265294132069,TazeYaprak
229.6587999657654,9.267543417796107,0.18852700017224866,0.01610873091393535,0.955787849841008,0.00026053089569632833,0.5749688495076299,0.18639531127388373,0.10621933022581227,0.06037811312618583,0.03476548679367643,0.02056701585979884,0.010291199409278553,0.006414693802196048,TazeYaprak
134.5470417477675,7.5820221339147595,0.18018678176164338,0.016124095948808682,0.9651479205006285,0.00026132407617163883,0.717163996574665,0.16349211202127387,0.0642809098690469,0.029977375565565033,0.01389568301330883,0.006603888956820038,0.0029503485385793224,0.0016356854592123706,TazeYaprak
136.97329550233655,7.295865968017056,0.18966219671443157,0.015742579383379213,0.971897411817271,0.0002488958938752059,0.7400428593284248,0.1398897902952091,0.061732741466306855,0.028853512934289217,0.01538343793048311,0.007454461962333607,0.004102250114795496,0.002540945966627061,TazeYaprak
198.6120457876887,9.004392781622629,0.15161856778808372,0.01560695310403228,0.938238131855901,0.0002445317409990433,0.6273910774039311,0.19518560594400322,0.08887285455480845,0.04356903804224328,0.02241395191743312,0.011821056833166782,0.006739537597091192,0.0040068777057877016,TazeYaprak
212.2068596813828,9.419313575307514,0.14079802888400758,0.01547033692650735,0.9341185126191323,0.0002404006939307662,0.5498971351359506,0.2331654742527203,0.10983510915941008,0.053827494089025964,0.027343630054921634,0.014124727484855644,0.00747689378817902,0.004329536033401404,TazeYaprak
154.03623652862242,8.433276609356932,0.14719634151507072,0.014635357224577615,0.9543637365906696,0.00021514863484258304,0.6073945007403558,0.2239900958316536,0.09754382747168976,0.03915814571959717,0.017485136105862283,0.00831461017621423,0.004142020878224369,0.0019716630748743305,TazeYaprak
52.24534566032193,1.9480111916089462,0.6854684803812885,0.092401491826487,0.9885580302428079,0.008588430865643409,0.9370797163453095,0.030581366915224076,0.011049639320193406,0.008344540897407469,0.005501895097191738,0.0037901944002876418,0.0022924562904965574,0.0013601907323612908,TazeYaprak
58.51688791570483,1.7983872488946602,0.7109567337985506,0.09790269566958887,0.9872271408545009,0.009651543556887337,0.9493422765333619,0.02696742775757344,0.008146889021595157,0.004931011776228647,0.003506837567566336,0.0031546224406928613,0.0022051729682513203,0.001745761933198962,TazeYaprak
71.23079605800527,2.2095464785178143,0.6779341355084353,0.09104484706201742,0.9871830563217022,0.00832740244678251,0.9249142577153894,0.03979360607539228,0.013335987261126078,0.007134982851532436,0.004807692307684947,0.004118691817730098,0.0035521803037672217,0.0023426016658464866,TazeYaprak
41.19935242755174,1.7718912948145094,0.6855459042511507,0.10254902334196722,0.9921627976419976,0.010576110988698392,0.9462163565805972,0.030290532490101288,0.009653866128968238,0.005911465493529601,0.003299422601039777,0.002520392264683163,0.0011761830568521427,0.0009317813827010482,TazeYaprak
54.18409154531865,1.892614769559796,0.6996680966178268,0.1027877225577741,0.9871240273613912,0.010631018552515884,0.9399204649725605,0.03117161211374859,0.010201896604450594,0.0067757724074536925,0.0046956255735627166,0.0031202202508364635,0.002263689201587238,0.0018507188742706473,TazeYaprak
60.7475877967606,1.995415915753563,0.6930508878552845,0.09388443021874276,0.9863145292020543,0.008893038693746434,0.9369238530552995,0.03055967468235586,0.011159861189654717,0.00657361686513908,0.0044486569947801684,0.0040358950055737605,0.0036842829406942283,0.002614159264973913,TazeYaprak
35.02476634587654,1.6083116169261933,0.7035132613306883,0.09912367382780782,0.9914155555832824,0.009885810221986256,0.950474939676628,0.027396841880169515,0.0095598790507169,0.005512965395061982,0.003054274457098051,0.0019241929079717721,0.001252252527410201,0.0008246541034164737,TazeYaprak
46.79358723207418,2.6525752114571386,0.5580798243186799,0.06575365669075586,0.9898308803254452,0.0043487883064930455,0.8885003054354177,0.07632864996933976,0.01757788637749301,0.007452657299927531,0.0046884544899134266,0.0031918142944361762,0.0014355528405598113,0.0008246792913854235,TazeYaprak
43.49901621371493,1.6681505310457008,0.7384699835189934,0.16096891550640832,0.9931352173984788,0.025979164137936845,0.9372030130316167,0.03422512185054894,0.012849699766210561,0.0066158382862891475,0.004140628581026234,0.0021849073324234367,0.0017265351647821562,0.001054255985574945,TazeYaprak
52.31321923959422,1.6281918763215644,0.7503922395593747,0.14666403012715187,0.9907322155974658,0.02158305855063926,0.9512500764090848,0.023244085824281367,0.008206491839341943,0.00516535240539586,0.004080322758108564,0.003163396295612257,0.002781343602905463,0.0021089308637415047,TazeYaprak
49.84412137158638,1.9414616974240055,0.702700804580667,0.13887306333514582,0.9926204778226597,0.019354788817112705,0.9270336391423134,0.040902140672720334,0.01584097859324795,0.006406727828736381,0.004128440366966165,0.0027370030580997906,0.0018501529051959478,0.001100917431190977,TazeYaprak
59.05087826797259,1.729106022923831,0.7906572758924091,0.4179204106979864,0.990713303565313,0.17467014501953698,0.9331588453164766,0.03381087948076987,0.013851899470392365,0.0069948265833915035,0.0048826032387349885,0.0031836409832504,0.0023418128386409193,0.001775492086812723,TazeYaprak
136.27141248257152,4.489455122428579,0.49499310524721346,0.05516594045428797,0.9894492538991136,0.0030716420163529744,0.8377933369226163,0.07800261598818496,0.037470185427348666,0.019481418788921318,0.011464184042453697,0.0072939909209705405,0.00472416711548092,0.0037701007924847733,TazeYaprak
66.38537386461843,1.5888643490484278,0.7356635941045716,0.08881779955515316,0.9911474858892521,0.007948146054249249,0.9716762562317274,0.012873034138837173,0.004112006137316284,0.002915228231679455,0.0025163022631338452,0.0021480629075532826,0.0021480629075532826,0.001611047180664962,TazeYaprak
67.26380565767974,1.6122172061226527,0.73350019183049,0.08826910407766293,0.9893802169509976,0.007850362854606194,0.9632852910915208,0.0201071357308098,0.005448880293463724,0.0030083958803349014,0.0023483906616899993,0.002087458365946666,0.0020260625316541173,0.0016883854430450977,TazeYaprak
77.41495245218101,1.983074628748546,0.7017544509372933,0.10742298394779401,0.9907313762638863,0.011595154865229721,0.9444137422846329,0.03325043750570561,0.007905805778134068,0.00409873814128504,0.0033311841822428983,0.002778545331732556,0.00221055540204137,0.0020109913726904134,TazeYaprak
69.99226585027243,2.2178611441512395,0.6512639143643235,0.10232152522272903,0.9930599507197254,0.010510227231031092,0.9330413207937436,0.03992709896768474,0.00987839617727528,0.005299108647034491,0.004211719300388685,0.003568474898147504,0.002067571292918082,0.0020063099212760645,TazeYaprak
66.58769152789665,2.367589764153163,0.6150024927221318,0.09272583096577479,0.9942497335653812,0.0086225714717632,0.9309754008063105,0.04159527597594909,0.010647411577514001,0.0064098641537045494,0.004880063639693917,0.002600660873818075,0.0014992045037304196,0.0013921184677496755,TazeYaprak
61.65884873005456,2.141161151960733,0.6353241718039011,0.07538406181315759,0.9946678952464254,0.0057147598826161475,0.9374999999985656,0.03777539779675983,0.008583231334136195,0.005064259485916364,0.004406364749075266,0.003595471236224609,0.0019583843329223404,0.0011168910648697722,TazeYaprak
54.6255933715392,1.6506787954152293,0.7170907757067555,0.10701892193401145,0.9866029854289872,0.011510119804054664,0.9555715621201888,0.02246708862695979,0.006513310140830771,0.003647453678865232,0.003402246708857485,0.0029884599469694128,0.002559347749455856,0.002850531026340055,TazeYaprak
50.855247305723125,1.6050948403258372,0.7173597084079253,0.1073389545420091,0.9870264169382093,0.011582890157036226,0.9553898222010209,0.022052405090396403,0.0066463498675222495,0.004287967656465968,0.0035682016569877515,0.003338489103962789,0.0025727805938795803,0.002143983828232984,TazeYaprak
51.80186716046644,1.7885810745867028,0.6849156758011221,0.0962147862223533,0.9875596545340746,0.00930660724888974,0.9437538273102515,0.0308940600122001,0.008802816901394974,0.004960195958351255,0.002985303123081774,0.003368034292707642,0.0025872627066708706,0.0026484996938110094,TazeYaprak
61.64465707299962,2.1174647971933434,0.6408606745003764,0.0776117003196932,0.9943619413461435,0.00605700351329671,0.9389447274604327,0.03611914268662151,0.008459926262474245,0.004956629491937895,0.004665962947657585,0.003457402053018408,0.002218244680033934,0.0011779644162938823,TazeYaprak
54.73225545763565,2.188043856329269,0.6254424315542899,0.07201023381738991,0.9908531056289535,0.005219476586867303,0.9193654383993529,0.04841741682069903,0.01322003331752041,0.0065259586434464915,0.004126484388127758,0.004187617490174095,0.002781556143108341,0.0013754947960425861,TazeYaprak
55.513761609115896,2.3609838013023237,0.6001488574338995,0.07301565471637017,0.9923933542689771,0.005358563935705059,0.9025952191708403,0.06591978969238564,0.015222840374128473,0.0057926270098340275,0.0038821299749283453,0.0029498074218943728,0.0020174848688604,0.0016201014856000182,TazeYaprak
59.005595218784876,2.470469455858257,0.5866703276585313,0.06822173409984672,0.9928798848454558,0.0046781256849474555,0.8973234075713519,0.06970452009344426,0.015270792888892722,0.006603586114115771,0.003989666610611612,0.002705635977311323,0.0024916308717612746,0.0019107598709825727,TazeYaprak
77.1629377973602,2.9765437722269312,0.5718632973246456,0.08776159206834996,0.9946915579370323,0.00771319604023217,0.8850983867011655,0.07482889269115921,0.018867636274720625,0.007745661207516888,0.004873502811041198,0.003956856514293637,0.0029179907113130684,0.0017110730872621134,TazeYaprak
97.83115434869563,3.4847914413929173,0.518899527899742,0.09195238607561594,0.9937691793462518,0.008463524837922972,0.8592474616749732,0.08984823657316368,0.02684574036351729,0.009356957993216806,0.005926583868044033,0.00415014012465099,0.0024962097428712594,0.0021286696580313197,TazeYaprak
77.42837320681768,2.372681705954367,0.6295178985404041,0.07660610903472662,0.9942054736867965,0.0059067340718587736,0.9366481884154595,0.03633885639025399,0.010336589997227747,0.005528161465184024,0.0035374107990512734,0.0028789317325612095,0.0024042142660218612,0.002327646932709063,TazeYaprak
68.13540472714669,1.681529805243136,0.7824240108724683,0.39790376011410766,0.9916714054083766,0.15833168927652738,0.9561683332296237,0.023050733083824534,0.007422857493393929,0.004646954174583389,0.0027452303539618043,0.002346481810928246,0.0022391264339576725,0.0013802834181930858,TazeYaprak
66.36488919525988,1.5833360366204898,0.7963538997200592,0.40311833634014566,0.9913074378310183,0.1625182476195971,0.9630362428856838,0.018159787726777774,0.0062117517139738156,0.0037577263454903333,0.003358947223111767,0.0023466617586123304,0.0017638307335975034,0.0013650516112189374,TazeYaprak
71.76158016147492,1.7719487096308675,0.7403627146017218,0.1278690063072392,0.990429539867215,0.0164101759039423,0.9549431992616596,0.024455019956978116,0.008197727970512438,0.004482652747920659,0.003101013202328675,0.0019496469143353552,0.0016579674547103807,0.0012127724900196303,TazeYaprak
70.99101613561956,1.91558577229907,0.7090281520052355,0.11724188158044703,0.9919149608798904,0.013798967120587622,0.9502171477664468,0.029004189493993516,0.007857219587790837,0.004527108942184174,0.0030538802694733917,0.002025689424977325,0.0018722281049032851,0.0014425364086959739,TazeYaprak
69.12922294009356,2.1930121677959833,0.6447158848411809,0.09084161826645726,0.9941915094392675,0.008291712739221004,0.9472370657302028,0.03034710845029115,0.007931282632316254,0.004547472860613759,0.003582857405332053,0.0026182419500503464,0.002036410405594714,0.0016995605640677688,TazeYaprak
81.62771398020374,3.23773704825077,0.5537800751096355,0.20333461756864601,0.9943018947745934,0.04135447071739607,0.8715617359399884,0.08421454767713292,0.02070599022001726,0.009642420537882576,0.00566931540341432,0.004232885085568103,0.0023838630806809536,0.0015892420537873026,TazeYaprak
78.73226370266659,3.2742868728374663,0.548146574464657,0.1893167100740893,0.9947147182786283,0.03584760529361336,0.8705508539291947,0.0886774006292373,0.019614432800678844,0.00826433656165674,0.005652134062500913,0.004109254223818232,0.002383061929054439,0.000748525862331202,TazeYaprak
82.56331591215151,3.8966381019320195,0.4622426564970839,0.0473484265231323,0.9923991958848579,0.0022642874683014586,0.8563049853359355,0.09616324535664686,0.02637768817200272,0.008400537634395772,0.0052083333333253785,0.0036351417399748975,0.002657624633427026,0.0012524437927644604,TazeYaprak
69.04411279615842,2.2908694822903954,0.6423609087496076,0.09682003170515055,0.9931181475624088,0.009418645923989973,0.9293870606794148,0.04642643655250919,0.011081648605963734,0.004276320831347001,0.003142099535577545,0.0022531152767312156,0.0019159143509619178,0.0015174041659618389,TazeYaprak
61.06702555807716,1.8358456633265563,0.7050141280264325,0.11427347308238221,0.990711818775504,0.01311859802968936,0.9485331329443947,0.03168371493853162,0.008986765224578669,0.003925958869440511,0.0022083518640602876,0.0019169721042189996,0.0013802199150376795,0.0013648841382039277,TazeYaprak
60.16073581975549,1.8312854881535467,0.6943455214024089,0.10429776803980889,0.991250876380957,0.010929762998358121,0.9532587026515055,0.029289986198390905,0.006946787302550304,0.003864437969630633,0.002392271124057058,0.0016561877012702712,0.001364821346417168,0.0012268057046446452,TazeYaprak
60.861496915247805,1.8159690233323238,0.7153152018258018,0.1241797215549401,0.9913994480791353,0.015475995752752197,0.9487788799102385,0.03175065540338855,0.007818848023045949,0.0037101200423080775,0.0028055866435635463,0.0023609854814687766,0.0017324114247141023,0.0010425130697394598,TazeYaprak
63.40068852724782,2.3550147178968914,0.6206266707732541,0.09140716447804725,0.9943332668745434,0.008392418027900125,0.9246977811768559,0.049211935730605644,0.009426166794170732,0.0059525631216435304,0.003871461361891551,0.0028921193573023837,0.0021117061973953914,0.0018362662586046883,TazeYaprak
93.88711742479457,4.215297331555318,0.42436523065237214,0.0439188524945095,0.9929356610631547,0.001945115881697934,0.8447053069197165,0.10104854487634347,0.028292369772517284,0.011219124480295887,0.00585412081192551,0.004249205184635227,0.002674859378817139,0.001956468574220536,TazeYaprak
95.02240313221391,4.381502216695647,0.4751493570526589,0.22574919257920942,0.9918218105632819,0.050968316477743,0.7805526279601329,0.1355908903448417,0.04742702653156849,0.01787105347566349,0.009149368403352504,0.005269669614618721,0.0030090577219706897,0.0011303059463240155,TazeYaprak
66.26456010008025,3.1778517727555546,0.5452840590612895,0.06930000574033643,0.9921330973185213,0.004820736899601921,0.8379434572863803,0.0987970934846144,0.03283568419119369,0.01427306588506095,0.008472247664394467,0.004793307687603356,0.0022287354216244904,0.0006564083776017336,TazeYaprak
78.45399361123087,3.551592070958218,0.5091548043551619,0.062292616117934116,0.9911497272619619,0.0038996925835508237,0.8187884618308691,0.11054102340905746,0.036602684502211734,0.01554507001387215,0.008429153877856019,0.005176599935857229,0.003389985798702964,0.0015270206300463801,TazeYaprak
61.42126691056265,2.3878918264609053,0.619001473226003,0.0793194234901679,0.991153730128808,0.006333655731793307,0.906176425621608,0.05630637517190597,0.01567038679098659,0.007323039290617148,0.004815777404059294,0.004387708301476246,0.003027060082551556,0.0022932273352663304,TazeYaprak
52.768651284961564,1.8418015456794952,0.6944860878498336,0.09245641272397132,0.9894580761986024,0.008603848119299993,0.9390619022099027,0.0349376386869157,0.009074910092571619,0.004713444027844956,0.0037034203075924656,0.0026168796388359983,0.0033667457341749686,0.0025250593006312266,TazeYaprak
52.035714133385014,1.6880834745049524,0.7292968009901835,0.11456221375381977,0.9889973700855194,0.013188921232047497,0.9471428352733983,0.028181303289561466,0.008327337854166995,0.00445451344772536,0.003444211428653628,0.002801291961971618,0.0031380593016621947,0.0025104474413297556,TazeYaprak
47.24394810589563,1.5968927666041477,0.7410779801013186,0.1263995383986473,0.9891983688818855,0.01605292098862023,0.94910692439297,0.026226449718579906,0.008120259358930572,0.00493944213358677,0.0032114020063567232,0.003073770491798578,0.0027985074626822874,0.002523244433565997,TazeYaprak
50.09632340926447,1.7846421748846144,0.7237683574442104,0.12732924628560488,0.9898771123551597,0.016281429549647265,0.9334016393428349,0.0369005382920894,0.012448005872258918,0.005826400782961484,0.0035937117690182383,0.002630291167111221,0.002920846586733972,0.0022785661854626276,TazeYaprak
51.67277131992398,1.9665279279603392,0.6948257475940169,0.11136455740411022,0.9906553647693475,0.012456119679628947,0.9233145251297104,0.04361056317561415,0.015245347645893166,0.006605807605843378,0.0038839702126949494,0.0030888267045841725,0.002599507622669848,0.0016514519014608445,TazeYaprak
49.558480542338565,2.163305249182956,0.635664783329077,0.09056387882150974,0.9933014285030527,0.008248721950845984,0.9184393911594253,0.04882633412792832,0.017452167002846367,0.007121462192054647,0.0031481141879039854,0.0020478024329084175,0.0015893392016602644,0.0013753896937444595,TazeYaprak
95.90583025458804,3.760939647611369,0.5025879972564024,0.05068868120017814,0.9914774495847897,0.002588973468022506,0.8534166615719494,0.07878491534735227,0.032531630095910195,0.016273455167752165,0.009213984475262492,0.005668968889423524,0.002658761689379227,0.0014516227614426813,TazeYaprak
85.56547403642638,3.468181468665763,0.5194776429688538,0.05705653521954628,0.9920306987812681,0.0032818004063818822,0.865378151259182,0.0768220015277665,0.028204736439987464,0.014087089381185504,0.007853323147428795,0.004965622612673849,0.0018487394957954946,0.0008403361344524975,TazeYaprak
96.91782787869798,3.6194940047096074,0.504701928818731,0.056143565538701076,0.9906137426166582,0.003188924519902284,0.8617353022090836,0.07954997095588438,0.026185453544855873,0.01334495093091604,0.008071173071619323,0.005396068360381858,0.003668715032554238,0.002048365893176116,TazeYaprak
60.95926416522403,2.1564386594097846,0.648232306994271,0.08604476912197329,0.9911419027092457,0.007455724672551076,0.930956934137641,0.040220301384471475,0.010035951962043852,0.005645222978649667,0.004895586322948221,0.0036257936204335257,0.002753767306658374,0.001866442285624009,TazeYaprak
50.11059062319681,1.7500426668828881,0.7069777920276927,0.11378111547454245,0.989352304716209,0.013007075141051946,0.9440509156542018,0.030384162293605885,0.00884292336641702,0.005308813854925097,0.0036871012652361624,0.0030598350748847823,0.00238667135841013,0.0022795771307891626,TazeYaprak
46.30597222222128,1.6530575680026454,0.729737164217023,0.12743672248447255,0.9881018150943254,0.01630564645509889,0.9452201440594822,0.02956154704915267,0.008610010858082232,0.004802030922624903,0.004022083225001113,0.0030892046062746194,0.0024927740139740738,0.0022022052638789365,TazeYaprak
46.184443828694576,1.8796593707948333,0.687236695826891,0.1109316759939406,0.9899710781904122,0.012350617372351252,0.9310661202505794,0.0406141048381543,0.012187289742473259,0.005474340938275316,0.0035629090464194095,0.002630130283193727,0.0025995473729240326,0.0018655575264513646,TazeYaprak
42.88450534349692,2.24124842308244,0.6005042401334176,0.08132520585248554,0.9934133334381307,0.006644168291922236,0.9100108365498405,0.059112623818954636,0.014621712785581858,0.007204017155317993,0.004304094995338292,0.0027320319296650864,0.0012362826050439776,0.0007784001587313933,TazeYaprak
44.84476916931011,2.4847334558823633,0.5475748838602474,0.06529641618334545,0.9930701213234413,0.004283625862896421,0.9000549735807652,0.07059524173094922,0.015117735088392759,0.006077634914323554,0.003512201081141752,0.0026417860305979267,0.0013896099929734758,0.0006108175793290004,TazeYaprak
119.8158674247841,4.6524225658398395,0.49060515839270535,0.0650844410242931,0.9896494299668199,0.004271023909994481,0.7972867564951176,0.09858831806417787,0.045547007631883595,0.025587690989973558,0.015845097349439695,0.009222580793158432,0.005108361500688086,0.00281418717403176,TazeYaprak
119.90055274713478,4.367541044910353,0.48987196536066396,0.062291788290043976,0.9904769919233257,0.003917618999483857,0.8295595842978838,0.08742305389667743,0.037440707366812334,0.0203091659886399,0.01123681746310235,0.007061388023261039,0.004252183657485452,0.002717099304602617,TazeYaprak
109.51432589027911,4.032530877546934,0.5216823821989243,0.0583107557286272,0.9902767151974288,0.0034373420070014076,0.8300968645261135,0.08396455951876239,0.03990879738015898,0.020000306049029058,0.011216698036678118,0.006962616107351356,0.0048967849546207335,0.00295337342575563,TazeYaprak
97.51141053020301,3.2555592650662,0.557575356578214,0.05609802162635216,0.9904507573581671,0.003194915717223315,0.8810301218657454,0.06470452977686103,0.025293170843833382,0.011573541810360122,0.006300298919282133,0.004552770751890009,0.0038629570016036436,0.0026826090288914195,TazeYaprak
70.30115006848101,2.2685503772586664,0.6761914181084536,0.11379240997334432,0.9937542452986249,0.012983061500421552,0.9257744904351759,0.04431785118138418,0.013077900797823803,0.006094853065027955,0.003966248602618695,0.002664584003303679,0.002006094853061965,0.002097977060072437,TazeYaprak
75.93813764537394,2.452829771001429,0.6268723897649076,0.09918564295233383,0.9936506396674043,0.009908070842843524,0.9329974270997718,0.03776647880415682,0.010705096789986055,0.006998897329075289,0.004487258024987002,0.0030476598872778613,0.002281916197007042,0.0017152658662066356,TazeYaprak
70.3709827199859,2.2164958639705117,0.6802477033503788,0.10700938842385962,0.9918583747339204,0.011493955585210693,0.9204367696210158,0.048124405729460286,0.015151979879128988,0.006395117013761931,0.0034045946691969994,0.0025917860319562744,0.0023617458516051256,0.0015336012023409906,TazeYaprak
92.26155909085071,3.1763034800315677,0.556567478241486,0.0594782424899402,0.9909855669063078,0.0035785801187483302,0.8883145171173022,0.05868818259900189,0.02287090440541344,0.012056694072873885,0.0071481163332814636,0.004739845379793932,0.003543379555768279,0.0026383605350309264,TazeYaprak
49.56653528690761,1.8094564590541578,0.6841957543264652,0.10901324796553272,0.9914315033575016,0.011945737372446738,0.9408477015879998,0.03486662787487387,0.012586898600415602,0.004991884359775531,0.0031696934431703523,0.0014393776988309813,0.0010871895384787199,0.0010106268949238804,TazeYaprak
57.58920951376772,1.7061825830209314,0.7256456809495522,0.12480977629034362,0.9892040868111465,0.015663954717926566,0.9484114212133149,0.029610556807164144,0.008705381090304987,0.004674544423491234,0.0028966849050486663,0.0024981991509149875,0.0018085122687605429,0.0013947001394678763,TazeYaprak
49.46178245746751,1.9746788494809193,0.6330258835478141,0.06970893313978371,0.9948126729264224,0.004894214327105495,0.9406847133743559,0.03976298383139429,0.008604850563436114,0.004026825085736117,0.0021282459578605335,0.0017914012738826075,0.0014698677119036779,0.0015311121998996646,TazeYaprak
52.43858353758095,2.241491703911899,0.59126130705454,0.06166369442752258,0.9946742930265111,0.0038285421015022717,0.9280644865230994,0.047584814463508235,0.0102022086940405,0.004756951879829978,0.0030132460460659347,0.0024167151029361304,0.002233167120434652,0.001728410168555587,TazeYaprak
103.92064336733257,3.4448827223903016,0.5470527042382042,0.111141994982777,0.993039167674244,0.012363284442117158,0.8537895884173018,0.09283225103226511,0.02728012404239046,0.009901902086292541,0.005910437679414927,0.004344555489024479,0.003208523311682389,0.0027326179400931354,TazeYaprak
77.84312124543334,2.057720107650852,0.675680774322346,0.07775190275951538,0.9924905028913367,0.006089077990115333,0.9495707989727591,0.0298521214354358,0.00634204020207561,0.003670091061249566,0.003025137820360521,0.0025491009044662258,0.0024876767862863167,0.002503032815831294,TazeYaprak
86.13094880874839,3.534932192545985,0.6012745738558753,0.09055405237432791,0.9887394167723879,0.008251657623195904,0.8378477585904014,0.0800360950092837,0.04172338375412305,0.021152287291771328,0.009956716577688455,0.004894238563533496,0.0027530091919875915,0.0016365110196815127,TazeYaprak
104.25435852496285,4.2108933613272,0.5898481853866877,0.21530589683984797,0.9860663600853873,0.04636436940788103,0.7909010167818343,0.09561435746647125,0.054253950753316404,0.028451549675320882,0.015466127649124913,0.008360896729130894,0.004287639348272253,0.0026644615949977576,TazeYaprak
57.083018986086614,2.082177332636503,0.7180015749822576,0.12292678098625778,0.9840421200557481,0.015163479245099726,0.9194133586428264,0.03553221781657425,0.020070115276832765,0.011435832274442467,0.0053581543454549714,0.003720090016987309,0.0024953690237404583,0.0019748626016105465,TazeYaprak
75.0677207534359,2.535275840421969,0.6990834236171091,0.12158527334200295,0.9794553149286918,0.014861608377091039,0.898145733959758,0.04084293185681072,0.026349289121292082,0.014708363368637432,0.00865017407707144,0.00503059769021176,0.003711599515339164,0.0025613104093456214,TazeYaprak
102.76626001717773,4.437002099552869,0.5117212010828617,0.07310401976140515,0.9873167586058118,0.005376654631449866,0.8065320102126778,0.10238375559991073,0.04782801486208494,0.022048592529132507,0.01051971682388569,0.005902050427354471,0.0030274766440833815,0.001758382899341358,TazeYaprak
68.26734532691584,2.619332873774404,0.6777300014543538,0.11620761674777388,0.988467145363725,0.01357623843266111,0.8872851392085358,0.0565717172025522,0.028668513614821502,0.013576599880590855,0.0060612554145591645,0.0037653253332867536,0.0022806238807305946,0.0017908254633924802,TazeYaprak
64.6209200487774,3.018314680651539,0.611976547727537,0.09661060168136681,0.9922354268071921,0.009380661246617083,0.866876614738864,0.07972421384116349,0.030345649947211797,0.012214697384293314,0.005197743567784388,0.0028740464433631326,0.001758060324397661,0.0010089737513934401,TazeYaprak
79.78548130526579,3.825307994521192,0.4946503293072223,0.05755582940336901,0.9925783266050467,0.003336140100176592,0.8186924183514146,0.11227082121742177,0.03855100853962451,0.015701998714432217,0.007468397049359572,0.0037495026169940475,0.0019436197239112,0.0016222337853117102,TazeYaprak
59.477746194370795,2.6507669976690575,0.6340499139164573,0.10076567226340628,0.9910441144916909,0.010209008181969008,0.8748298903639584,0.06873193779710893,0.030443890579320107,0.012354928974430258,0.006131592226171453,0.0032722212877822716,0.002522974357402219,0.0017125644122972636,TazeYaprak
67.45550749711518,2.540943777633511,0.6770515086367611,0.13161914326101523,0.9887023828023581,0.017386516754156735,0.895347946630983,0.04982920515287314,0.025274573778739835,0.013571680223008177,0.006984973117033554,0.004457515739159571,0.00254277530137625,0.0019913300552946533,TazeYaprak
72.61473204416401,3.067012927720003,0.6438402042438676,0.23535610241160962,0.991100551433729,0.05540299686278438,0.8625864284389914,0.06949458483743882,0.03454078198611861,0.01763752065101628,0.007419078504547177,0.004436150033646766,0.0021568867404972206,0.0017285688062140846,TazeYaprak
89.3067404964405,4.185092091983685,0.5277211567171853,0.07042165716275717,0.9891760665140759,0.005007979821151775,0.8162043260405472,0.10286569717691729,0.04604057191731938,0.01988879384085927,0.008294635219344534,0.0040785775387937205,0.00160393498716607,0.001023463277525016,TazeYaprak
129.85457842236343,7.367015465806359,0.17688917643633048,0.017203770225675062,0.9641582832533053,0.0002973232353196121,0.682328297962384,0.1990398140783453,0.06831386459533313,0.027505962938004547,0.011864717754247653,0.0061464130634118,0.0030273377775013343,0.001773591829243206,TazeYaprak
98.64263171016523,5.205558348952428,0.24506432942622167,0.03008161094115059,0.8932027336921531,0.0009050710032656699,0.7332429559553044,0.1717837721255037,0.048233789841713934,0.020673824965691503,0.010429343891038114,0.007024787022619468,0.004760217521906613,0.0038513086746817258,yaprak
87.25178768382864,4.7502607470686,0.24555903063734894,0.03256002122709806,0.921490242784867,0.0010603547328176825,0.7519758895335487,0.1786757695971666,0.03873358550905875,0.013100839560824952,0.006873327797756752,0.004812867115655176,0.003521235046278068,0.002306485838173407,yaprak
84.59133272059387,4.96855689518467,0.23594413280266419,0.028172737840361613,0.9489804752906477,0.0007938510675209588,0.7317350370893831,0.18972216676108533,0.04312635345787482,0.014452243092542809,0.008646772434751968,0.005160418362480748,0.004100689591614166,0.003056319208731157,yaprak
73.96931186322908,4.843620272251112,0.2387653862276352,0.03250995157361451,0.8980400453413817,0.0010571251860620496,0.7335808985994144,0.18340289712714308,0.04763073901293943,0.016848760127644167,0.008194205745138421,0.0047876258286202004,0.003467959734833863,0.0020869138227318823,yaprak
61.3186313256939,4.093082588427621,0.2610228873055609,0.03333874936090405,0.9112229086162493,0.00111168292273398,0.7890548331685644,0.1620154563294866,0.029256624141270154,0.009874877330701247,0.0037874141314956644,0.0024380520117725127,0.002070044160938926,0.0015026987242371462,yaprak
64.78977487625278,4.686869713571809,0.22672801310827212,0.03074564952843548,0.9433291972299435,0.0009456772774366453,0.7219533858063736,0.20685430767785543,0.04546568252113953,0.013184894796463837,0.005880371198422896,0.0030473798658493655,0.0019907506661327513,0.0016232274662313204,yaprak
97.47688893695339,4.919151257929813,0.24060388183570197,0.030195298217271002,0.9363490743920555,0.0009120419027479126,0.744062552908704,0.1834105496464723,0.040450060798164586,0.013714232941843473,0.00701873201064043,0.00450984315595975,0.003924948821739715,0.0029090797149364943,yaprak
78.97651933751851,4.728042519704067,0.23432568566671308,0.03291816222098344,0.9051898550580516,0.0010839077153034745,0.7341989747356507,0.19610461368420035,0.04274488135794772,0.0123399944746104,0.005525370660273313,0.003821714706689042,0.0029622126039798597,0.0023022377751138806,yaprak
101.93281326593782,5.308579257377101,0.23137035462890837,0.030521315121781422,0.8884315297860435,0.0009317244287780303,0.713144282282294,0.19519366956063305,0.04958741301796664,0.017735082209468355,0.009637292936742353,0.006465915388868671,0.004864831578291667,0.0033715130241958073,yaprak
107.57954581772032,5.287049722462644,0.23821416907850146,0.033046221046597365,0.8719335589262887,0.0010922350546338515,0.728024516445842,0.17802143649104038,0.04777011211031205,0.021097696193142328,0.010256252309950942,0.006683503757535599,0.004835530368355249,0.0033109523222814605,yaprak
73.95102774474107,4.983015561923381,0.22905929826369867,0.030262822236604293,0.9207838962677983,0.0009161102927057925,0.7152913030798606,0.19576119128284422,0.051144815740562906,0.019752480561872572,0.008511356142732358,0.004646740380626855,0.0029444691520803833,0.0019476436578865035,yaprak
83.70303148128595,5.115253553320981,0.22354939990476405,0.02788406174663309,0.9328458078662764,0.0007778402839703324,0.712378845827823,0.20290923613319983,0.04692564090741298,0.01632797259724386,0.0087092760702138,0.005637221018992001,0.0040858332181249925,0.003025974225453472,yaprak
87.07301482603307,4.859710538014328,0.24016122009960855,0.03372001200109542,0.881694461878177,0.0011373603317376092,0.7413162424678142,0.180422353374861,0.043019181113913965,0.015892044755908195,0.008084347719156393,0.0046876921185222435,0.0037194147301061733,0.002858723718180778,yaprak
79.01395779268022,4.462260038206587,0.24875485358769805,0.033304389500299396,0.9200797193584338,0.0011094352678304616,0.7623666492440705,0.1774525778581218,0.03766102007557159,0.010806406984949724,0.0050265932917191464,0.002889906846615289,0.0018292495465277627,0.0019675961508870054,yaprak
70.21549824587052,4.50339202470219,0.246884026092048,0.03391296680278052,0.9092272997807631,0.0011503830109781633,0.7585249497618406,0.1789510822043243,0.03577180899198391,0.01188814406894834,0.005844365019702345,0.003972941050138864,0.003021889524622997,0.0020248193769047493,yaprak
91.88403118692872,5.196846960904599,0.23049514031071947,0.028591514248567956,0.9248468003765788,0.0008175792518831408,0.707586715186163,0.19918006356779955,0.05133047737489623,0.018993658544046256,0.008905676601088788,0.006264682850421078,0.004575675219180101,0.0031630506548694657,yaprak
81.37477912642207,4.7357179480249325,0.24407977956429056,0.030815432621547532,0.9305872147675329,0.0009498236582423178,0.7446149125487195,0.18224915618259857,0.040380484811229855,0.013838600797769501,0.007517643448899175,0.005277692543716972,0.0036207425590616435,0.002500767106470542,yaprak
82.90455700632384,5.279183381992526,0.19531620418105392,0.0318015726006176,0.9003931404090116,0.0010115111054306697,0.6515412010305607,0.2638462483110281,0.06003622743451425,0.012648900896456084,0.004574481149446496,0.00305477096892568,0.0023179417904913456,0.0019802284170422754,yaprak
72.20506289648613,4.586844633073961,0.24355353257825063,0.03138564674371771,0.9205187678267355,0.0009854060612392095,0.7487584304096432,0.1842274678108764,0.03894849785401755,0.012584304107889969,0.006453096259953321,0.003908645003059613,0.002851011649290541,0.0022685469037365597,yaprak
77.74772881824691,4.836608485918984,0.24019590506211178,0.031089044600342095,0.9109430403802904,0.0009667446783041258,0.7372707195866246,0.1816452978342101,0.04530396908158195,0.015781240414674283,0.007852279001276222,0.005766517391562225,0.0038647935709406403,0.0025151831175962897,yaprak
89.76878284494458,4.87546906538365,0.25052010139650266,0.029448920914915497,0.9378893807873169,0.0008673856922034674,0.7470990913544525,0.1685443271117256,0.04283828585455114,0.018971021610972846,0.009884577603128247,0.006001350687613579,0.004144155206280476,0.0025171905697407336,yaprak
75.8070821919492,4.64923923490975,0.24954307292169248,0.034027693733066945,0.8849923595453264,0.0011580240818415471,0.7480558921411291,0.1764958510358199,0.042256545546509414,0.015092718990114433,0.007178244397737353,0.00455542432933332,0.003619798456978665,0.002745525100843987,yaprak
84.20426180736123,4.93922164852471,0.23975433124820544,0.030766804007476493,0.9009489528283775,0.0009468584448113701,0.7281508668999982,0.18609579679624969,0.04858946204516702,0.01761444784001472,0.008676689650922683,0.005067801035052186,0.003317106132034158,0.0024878295990256186,yaprak
71.68296118079914,4.553097096068935,0.2479964134801747,0.03507506076295884,0.879060537739968,0.0012305149716819127,0.7570030374608704,0.17252170711476003,0.039548369281686944,0.014389592857339935,0.006918663516695427,0.004433467308924565,0.0027153069677496467,0.002469855490438944,yaprak
91.86571518466977,4.852238156598541,0.2523927693643891,0.033541345850729445,0.9325016019585457,0.0011251634329553777,0.7449562413622832,0.1730385383077337,0.04263780132037059,0.01661292799014799,0.008935974205421563,0.005972670044517162,0.004636880085974763,0.0032089666820156472,yaprak
92.69413446751794,5.187295030757532,0.23619893348408805,0.03172759575726447,0.905414131656876,0.0010067818292027672,0.7146062235870694,0.18908951210113087,0.05209373799454154,0.020345754898163124,0.010772185939284253,0.0061467537456686185,0.004548597771794777,0.002397233960810761,yaprak
117.27199984682122,5.3261080624040495,0.2374484012332357,0.03286343301184061,0.8545645632989077,0.0010802004842266708,0.7279855526560453,0.18088505410008043,0.045996882090471855,0.0199731427600908,0.01072746075599931,0.006421041258267212,0.004260113911734978,0.003750752465766665,yaprak
102.07012824094757,5.199475427119512,0.22666989460076692,0.03083824472461776,0.8762108673701845,0.0009512231840194924,0.7179431947553344,0.20168015509092888,0.04460411730306704,0.014878296458111706,0.00789303628025988,0.005508200756984478,0.004292703941895725,0.00320029541187925,yaprak
123.05538319096772,5.607700779147583,0.22377964784419835,0.02641461508854316,0.925526707766047,0.000697890914295551,0.6937523128150151,0.2019705193039935,0.05592389293194781,0.022372640927558942,0.011024423337839175,0.00681509806339149,0.00481065745651164,0.0033304551622003664,yaprak
91.81685651252363,5.053896863586191,0.2352459832238452,0.03169158554421565,0.8866049567671874,0.0010045705541421519,0.7265133451261803,0.18644719636922322,0.04919621567564157,0.01793708176291372,0.008891623721238534,0.005030382278278547,0.003322821321431701,0.002661333743554094,yaprak
100.71437436923857,5.534970323914007,0.2206926888270028,0.02953522977879069,0.8990907871979659,0.0008724823715074896,0.6875922282330799,0.20399348253780744,0.058503443187317844,0.022949458927657786,0.011543900639431346,0.0068710034431768464,0.005041810132800907,0.0035046728971908745,yaprak
92.87884372897928,4.982096954897325,0.23441153774714907,0.02918355236660159,0.936043588850149,0.0008518988797139563,0.7347513149384289,0.18852080834150206,0.04133985420312919,0.014595060133470833,0.008089569684094477,0.005690381716948586,0.003998646611909817,0.00301436436897817,yaprak
98.35729025495667,5.087125084102409,0.2359008914167282,0.02848219036638703,0.9354948783576059,0.0008113517563968589,0.7268701468428894,0.1867763511952229,0.046605673867845615,0.017482893826374288,0.008872145767649924,0.005689244253085739,0.004120857999532374,0.003582686245862101,yaprak
74.52377297794425,4.651504529507995,0.2385909034493557,0.03177193901093807,0.9095993465561336,0.0010097586764576704,0.7435803037264249,0.1882650713296698,0.038349440098115736,0.013161527841673322,0.0066267832489543994,0.00426445773891047,0.003528148489026648,0.002224267525690713,yaprak
89.60421703792345,4.951191128412264,0.23750490484326237,0.032554850027954677,0.8773856852812122,0.0010601602092104156,0.7371202113595018,0.18096218242115303,0.04337808362255633,0.01711160947433702,0.008356118091597253,0.005698749654379744,0.004224140579391994,0.0031489047955467592,yaprak
122.588240745755,5.714150792363692,0.22941159751878293,0.03039017765291381,0.8475396142018281,0.0009237163627235073,0.6972951287619045,0.19173262972705685,0.05795491366930834,0.023515252511189008,0.012343964572802629,0.0076378280794216265,0.005477634279181166,0.004042648397592861,yaprak
41.79702102256532,3.647994626465879,0.27162213725985407,0.04048226238881631,0.9621032849191432,0.0016391060717463454,0.8138212500560771,0.15114412803205218,0.01981015270323014,0.0064810993411802305,0.004142400758160006,0.002369269806327679,0.0013451338255279725,0.0008865654759161636,yaprak
42.867353406744265,3.771981013913015,0.26682710575898844,0.03979828605346537,0.9343623432930712,0.0015841766117461419,0.8055457894483169,0.15416010639087396,0.02309726532043734,0.007016310246248007,0.004157813479258078,0.0028432106880220682,0.002017762423757597,0.0011617420015574043,yaprak
45.66399918300873,3.9495862468763225,0.2599503639284062,0.042192659503311476,0.9288291201011513,0.0017805624137767026,0.7873440176156298,0.1663812087102912,0.02810741375087456,0.00804379740639827,0.004297161732315425,0.002630291167111221,0.0019421335943204947,0.0012539760215297682,yaprak
46.316384503558524,3.8600728986448734,0.2684727525292513,0.039280424870010294,0.9498528768484862,0.001543386131042243,0.7996025072606641,0.15574071242905405,0.02624980889768193,0.008591958416131185,0.004250114661360266,0.002690720073379161,0.0016205473169215402,0.0012536309432789273,yaprak
51.86544069588888,3.901215998654485,0.2688543647173926,0.039767217483520946,0.9437474937440475,0.0015820342152095838,0.8015262505913815,0.15285445564215258,0.02602884277168021,0.007906528621009793,0.004557341448860577,0.003196256251046512,0.0022480845402097476,0.0016822401321297431,yaprak
62.26267389646123,3.966108723207553,0.27101628303744363,0.03229723478110963,0.9564872725674418,0.0010432925107300914,0.8088082107830747,0.14718137254879415,0.023192401960748787,0.00827205882351674,0.005376838235285881,0.0035845588235239208,0.002205882352937797,0.0013786764705861234,yaprak
60.616708102055284,4.30429460724253,0.2530440260489821,0.03264744339648109,0.9779950544121316,0.001066086980021187,0.7629229969725141,0.17560297129554672,0.03677437104509404,0.011707883715936007,0.00527313300521922,0.0036224131079332033,0.0022773820805149676,0.0018188487757132962,yaprak
64.60416159049726,4.008674428104705,0.26898653564648656,0.031981779241521416,0.9648840334534003,0.0010229760069540997,0.8078090507713885,0.14865403482930364,0.021921756193245767,0.008768702477298307,0.005472774098593524,0.0034952170713706534,0.002238165317632085,0.0016402992396344733,yaprak
41.82219642084957,3.6209755262400005,0.27424465689211364,0.038170242131884864,0.9618524041620945,0.0014572134797697645,0.8198674282908943,0.14468338577123027,0.019137367504629108,0.006032929101618913,0.0037877630815227603,0.003222653266940736,0.00198552097015306,0.0012829520114835157,yaprak
38.63062115532641,3.6338282151096566,0.27064857833177625,0.04111213999891129,0.9492320034152986,0.001690460666689602,0.8125276907786838,0.1519364448855673,0.020579023756748027,0.006141624016490503,0.0038805286074342976,0.0023985944542015145,0.0016194331983780926,0.0009166603009687317,yaprak
73.56506972979494,4.359145145497088,0.2564879202143,0.032950063045685374,0.9318534872862292,0.0010858892897002317,0.7840579487718358,0.16051012108445156,0.026288730989355153,0.010527769678165579,0.005954481975405604,0.005202498426965205,0.004511901290642391,0.0029465477816440102,yaprak
43.073211445119966,3.8169254012881026,0.2714924152146512,0.04838031818083284,0.9332044574247653,0.002341475508051049,0.8028663977496595,0.14995110622150418,0.027243002077943952,0.009809314264744821,0.0045685124067892545,0.002826671556040174,0.0016960029336241045,0.0010389927881661182,yaprak
43.68374089893546,3.6978014765956644,0.2795332197055426,0.045428257524571504,0.9512613780091961,0.002064483916276464,0.8182568428761966,0.13995995904185968,0.02310760625368987,0.008390261794494536,0.004661256552496965,0.0030259960570308162,0.0017422401540480457,0.0008558372686551804,yaprak
59.86513519440126,4.232906003700698,0.26565333926815865,0.0427993194161162,0.9537608270114035,0.0018322172798997318,0.7893337001868065,0.15210712156623699,0.03249721037582352,0.012473059109441199,0.006909096467484586,0.003408691398781112,0.0020177007382919587,0.0012534201556056107,yaprak
41.657400639179556,3.766544267829805,0.27272234274464424,0.04319957893770916,0.9468928330862207,0.0018667582213498812,0.8077880810876918,0.15151468858346215,0.0236789440718256,0.008463312913413797,0.004109442551820056,0.0023678944071825604,0.0013596296918661152,0.0007180066912101957,yaprak
45.81801499123181,3.918107173322903,0.27025749546536726,0.04276488033906341,0.9575517600986961,0.0018293746760453494,0.8013903743303263,0.14777692895317376,0.029243697478946916,0.011336898395704604,0.005393430099304212,0.002551566080973947,0.0015431627196309501,0.0007639419404113614,yaprak
39.351853779197384,3.649391084558926,0.27844627462064614,0.04069301781066807,0.9610873718084012,0.001656393720910669,0.8185692681349487,0.1426454638495904,0.023280326291151825,0.007393489452045593,0.004200846279571359,0.0020622336281532127,0.0012067885675859542,0.000641583795425444,yaprak
37.65122624111113,3.561152771770584,0.2808747547441322,0.04623223323994184,0.9384575092279319,0.0021380766275204644,0.8243928516865368,0.13966702306378545,0.020528486329585264,0.006934473804785498,0.004261493813954084,0.0019550939361509772,0.0012677562242228995,0.0009928211394516682,yaprak
39.09092103998656,3.6559359381008405,0.2760778378988977,0.042567023920654756,0.9537465777365846,0.0018124980019795026,0.8178583427494306,0.1416725206924931,0.023502641947369503,0.008613053969016503,0.003894199932800015,0.002565590543962363,0.0012064384105537301,0.0006872117528470615,yaprak
37.082196781287486,3.6047652345252907,0.2775110772269549,0.041564807507475016,0.9569783002783083,0.0017282293742518732,0.8173599657919226,0.14394355873168416,0.022417689817325732,0.0077576201820173515,0.00406206096145003,0.002351719503997386,0.0015118196811411766,0.000595565328934403,yaprak
48.77794907607924,4.1012388564495605,0.2605775307889285,0.03970622521442349,0.9591809921791749,0.001576991577242474,0.779607423813061,0.16508057740752297,0.03337661345752176,0.011930038952093592,0.005132513556854606,0.00261208279232779,0.0014817077827824307,0.0007790422363082883,yaprak
41.85672699502762,3.583406277032961,0.2715729257283289,0.05239008418819103,0.9485327039647997,0.0027448916271456316,0.816859175398429,0.15448634590353477,0.01688977281417136,0.004727300543096876,0.002508987990510963,0.0017287539202910905,0.0016063642622173848,0.0011932991662186288,yaprak
46.208955780230696,4.208295847750959,0.23447525884406764,0.04800783508091951,0.8999780402499598,0.0023048428851742495,0.7367696543274139,0.21486693178309135,0.03299174059340319,0.007402875497082589,0.0030590394616043758,0.0019577852554268005,0.00178953808503856,0.0011624349954096628,yaprak
38.88616496660108,3.8113648897059864,0.2560285980720219,0.05017173039394136,0.916789331377027,0.0025174419870583067,0.7767237955568131,0.1842024867867531,0.02506644670512164,0.005926740598164044,0.003207771973233117,0.0024134665322420594,0.0013900345217343507,0.001069257324411039,yaprak
67.70627707793074,4.5726786422290555,0.22893667821393196,0.04520720315070671,0.9288448641078347,0.0020438263140399797,0.720628352489317,0.22084291187705618,0.03681226053634205,0.009517241379295759,0.0050268199233639435,0.0035402298850520457,0.0022068965517207557,0.0014252873563196547,yaprak
49.57530984177007,4.357440572736536,0.23155311553428187,0.047806315589123016,0.9077579365056949,0.002285546018917048,0.7250768219401552,0.21533075476568875,0.03915243613453524,0.010258213450321416,0.00467811224411081,0.002644815092258726,0.0018039779241995934,0.0010548684472014571,yaprak
44.15079985762834,4.2163274191417575,0.23139149242818108,0.04671742378222304,0.8809055378482809,0.002182609558292999,0.7307215927324943,0.21959722923036287,0.033671269324229446,0.007982017523727415,0.0036240194504279645,0.00226310075385375,0.0013150450326447466,0.0008257259507304223,yaprak
54.84365916955242,4.442973736063134,0.22706629488293265,0.0470498405314048,0.9032942443062669,0.0022137706046340285,0.7163260619966072,0.22550325296559434,0.03912743972439475,0.008955223880583306,0.004393417527739161,0.002587064676612955,0.001745120551088029,0.0013624186758494261,yaprak
41.2831447339982,3.839268190119288,0.25319692819494444,0.0507167466058724,0.9078334618128405,0.0025723707273418456,0.778210949562326,0.18589184974516368,0.022718586127256617,0.005381522420453789,0.003072971609406851,0.0021250898194405585,0.0015899952605886193,0.0010090354538350853,yaprak
53.0043958002955,4.260510756079492,0.2362198295530123,0.04696461435435466,0.9299824998089902,0.0022057977278323515,0.7392722095486302,0.21262687344006884,0.03199583594857397,0.007562652133299303,0.0033526737190132535,0.0021738797630131597,0.0016227553160520771,0.0013931201298182925,yaprak
37.15277920451412,3.5418289690264255,0.2709485891313369,0.05334572900153682,0.9441239476311808,0.002846088539777179,0.816878810566727,0.15321730360748556,0.01599865531834421,0.00516479990219708,0.0033158626591028592,0.002781046101183043,0.0017878153507605277,0.0008557064926717055,yaprak
42.87456799968952,3.5671519818099684,0.27743576782860896,0.05668151024020253,0.9528588532910951,0.0032131689744056245,0.8261826855435214,0.14447570410668714,0.016039264854261277,0.004892816733425748,0.0031191706675589136,0.0025075685758806955,0.0016360355952392343,0.0011467539218966594,yaprak
44.38686995386552,3.9848492166475404,0.24808180055732504,0.05087222197569546,0.918783577400081,0.002588144066632008,0.761523995901415,0.1939089088320915,0.028605500940222597,0.006971730854485037,0.003638754261770699,0.002461510235903708,0.0018040882474325316,0.0010855107251500826,yaprak
54.6616889687878,4.426006538951456,0.23055753927392422,0.04853087807541026,0.9397899785743845,0.002355389209817574,0.7190741364000871,0.2189211516687285,0.03939356852180125,0.0100052014808769,0.005109690052924901,0.0032738732674429,0.0027231282317983,0.0014992503748103001,yaprak
46.56000881572164,4.22961951232709,0.23503660060450923,0.04805252262082494,0.9219679812104445,0.0023091780638052283,0.7356552050992468,0.21156756922009637,0.03446114330265192,0.009219196722049293,0.003822220863204516,0.0024767991193565264,0.0015135994618289883,0.0012842662100367175,yaprak
58.622416633629264,4.495663822207895,0.23030601707774406,0.04754817142738963,0.9079592880753956,0.002260933512942639,0.7248717752419431,0.21572380004560096,0.03620914031993231,0.010793845211650013,0.005282094465275538,0.003597948403883338,0.002097527367370286,0.001423868942813406,yaprak
41.39440879109204,3.6569187031431354,0.27441950648720365,0.05176950627980754,0.9311198006163535,0.002680591812614235,0.8154772824545719,0.14703724087300948,0.019904604659665037,0.007536843392638145,0.0043264232862405575,0.0026906378034570254,0.0017733749159148575,0.0012535926129742959,yaprak
36.39174750997333,3.8168025368849277,0.2539922903721956,0.047517580003350726,0.9038870774583708,0.0022581267109399858,0.7777031051904237,0.18221808128762013,0.025415832964174344,0.0071176551450151705,0.003726840891381334,0.0019550640741672573,0.0012371889844339675,0.0006262314612566996,yaprak
45.72793168493068,3.8767796941081296,0.25458220334634013,0.04924713185462043,0.9493729171730592,0.0024255684404780645,0.782075399555277,0.1807142310924819,0.02248222069278507,0.005964670796045018,0.003487038311534011,0.002202339986232007,0.0017129311004026719,0.0013611684637128375,yaprak
53.708885614909875,4.3725860546425395,0.23392947602958078,0.046926802426742235,0.9280332565916742,0.002202245666315509,0.7299700085678633,0.2133982127552127,0.03565307871215012,0.00942587832046544,0.004529318153989887,0.0028614273472841512,0.002371771330636596,0.001790304810867624,yaprak
48.749636963550685,3.8548792982267965,0.26661870765341994,0.04947379128332706,0.9500553255160968,0.002448024983876986,0.8042294871390497,0.15638092908016088,0.02048992323921146,0.007997186458289248,0.00478607908497999,0.0030123245359139233,0.0018960824490016574,0.0012079880118639592,yaprak
28.240628063726643,3.213850412101192,0.2906434011648662,0.05763856905533894,0.9459901467296112,0.0033228360191017445,0.8456641221361135,0.1304122137402589,0.013312977099216316,0.004473282442741262,0.0030687022900716507,0.0017404580152645184,0.0009618320610672339,0.0003664122137398986,yaprak
35.382488646195355,3.4417267697521208,0.29099014122433997,0.04700780095473946,0.9717528182784609,0.002210300966273896,0.8309439838763478,0.13261271164425012,0.021328569901798,0.007068810210832121,0.003679445487711752,0.0024885876120208116,0.0012366601016790535,0.0006412311638335833,yaprak
50.309980205932185,4.139884089052392,0.2417782832643444,0.05134967659094769,0.9230993063635462,0.002636951519318532,0.7543005815721544,0.20096418732751611,0.027655341291662604,0.0077288031833368095,0.0036883991429389525,0.0024028160391759983,0.0018518518518490176,0.0014080195898356167,yaprak
61.75393009900388,4.471910983756354,0.23178194498005805,0.04963086829149071,0.9045321536097874,0.0024633178925801266,0.7285642039435297,0.212725851684654,0.03849631434564158,0.009470828927391123,0.004490215009264723,0.0028504436577584933,0.001961595635446705,0.001440546794781174,yaprak
49.789677663040365,4.038799845612383,0.25150469438080253,0.05225334160755585,0.9204537897708509,0.0027306079388183364,0.7676827961914001,0.18682092247392829,0.027652802007731684,0.007804609310427869,0.0039023046552139344,0.00270865852538379,0.00202001652740486,0.001407890306979145,yaprak
57.451310043015106,4.242151005622964,0.2440574079298195,0.048082893396030224,0.9129583724867028,0.002312138914564734,0.7552665042656689,0.19362350814267648,0.03093257342459755,0.009452896385823025,0.003983392318175019,0.0033399212513929005,0.002037658378143375,0.0013635458319906796,yaprak
57.74411294634591,4.2923539173636325,0.24266824271038567,0.04895901023870505,0.932783352822719,0.002397118623172036,0.7499540863165749,0.19755127027824065,0.031022344658660817,0.00872359963267719,0.004958677685942824,0.003275176002443717,0.0026476890113213227,0.0018671564126081005,yaprak
50.23669209258635,4.549574487576962,0.21870593793100118,0.041401755544137775,0.9356571033167593,0.0017142825689753678,0.6973115074805549,0.2380821373435461,0.04473688232679974,0.010561389028978003,0.00441713665611381,0.0023384841120602526,0.0015589894080401685,0.0009934736423785387,yaprak
26.52958683258985,3.151098210423944,0.28911334193522303,0.051742395510899875,0.9551199471670071,0.002678405518336145,0.8619631901827336,0.12051704666831407,0.010148643286618825,0.0036474071360930813,0.002106034245944959,0.0009919726520755243,0.0004883557671756427,0.0001373500595181495,yaprak
41.74610439794955,3.8999764363467047,0.25435931839729053,0.055808295807039984,0.882140614070102,0.003114694116526616,0.7746648936971362,0.18267687651858916,0.025142525257118402,0.007932504929145563,0.0045699787549412785,0.002552463050418707,0.001406147309212701,0.0010546104819095256,yaprak
47.43876674536454,3.938451241710027,0.2561050508156933,0.05420176500616951,0.9154697564598192,0.002938058189847917,0.7816281880620223,0.1757470050945124,0.025642202536641664,0.007680421046177873,0.003901409097162067,0.0024785422499617837,0.0016982604305293702,0.0012239714814626093,yaprak
64.24617999988288,4.558381556973353,0.23175915695581256,0.05123658379638274,0.9029246477698364,0.002625303422351683,0.7207136840482109,0.21280343058394546,0.04225438394970173,0.012573703958936252,0.005727850524533689,0.0026801439620144267,0.0018837583275872827,0.0013630446435387656,yaprak
39.80125669814666,3.8340922061227465,0.25390691169082635,0.05386460484328846,0.9029794377519504,0.002901602634157338,0.7734643659527527,0.18919745067143132,0.024071894725543608,0.005807822219496236,0.002919194852431003,0.002185575203652531,0.0014061043268254044,0.0009475920463388595,yaprak
48.72504643646866,4.1080291834872185,0.24238737996320636,0.04785771035680157,0.9557419328762832,0.0022905008104710037,0.7499273489228523,0.20157232223397994,0.032073538183826994,0.007723956501112366,0.0029672228934966315,0.0024624891023348333,0.002125999908226968,0.0011471222526404504,yaprak
58.33476137483446,4.248014300389397,0.2429960202723172,0.04501478148549727,0.914496752576619,0.002026471052102324,0.746511236039971,0.20253978952497276,0.03224521683180061,0.00862425514313717,0.004442333910319324,0.002328395704719094,0.001991391063246593,0.0013173817803015925,yaprak
55.893815149224345,3.9586707336122267,0.26992552586235263,0.036115208863237144,0.9463092320665136,0.0013045141565690536,0.8061252601922276,0.14457573160257045,0.02482551732578544,0.010346516468699727,0.006060977102966112,0.004300844863468377,0.002357046651153488,0.0014081057915981876,yaprak
43.43146446078618,3.6865093053153775,0.2727516860149882,0.038341662987364855,0.9571979568745907,0.0014703293942711002,0.8156168280026065,0.14763499564137628,0.022250768454340427,0.006744047345954728,0.00339496260952823,0.002125674787046955,0.0014527993148882067,0.0007799238427294583,yaprak
40.03741335964717,3.57598178885534,0.2754431334859311,0.043767584625259495,0.9409900990414839,0.0019159524375393017,0.8229466087688475,0.1440278882023362,0.019448351782735844,0.006543942266518036,0.0032566815485241627,0.002033514769735745,0.001100850100909576,0.0006421625588639194,yaprak
45.59518418396974,3.7386317462034904,0.2682979421341938,0.038576429675144075,0.9530275245157478,0.001488323374362029,0.8128154923963459,0.15189524887546746,0.020084437238014983,0.006944656897226811,0.003441735246422979,0.0023862697708532652,0.001407287300759618,0.0010248722733792871,yaprak
45.38030635753303,3.7940240983036744,0.27093153806891773,0.03550675889447573,0.9602651030979574,0.0012610468999371366,0.8111869948498706,0.14513147239897767,0.022016470336554038,0.009060212983745,0.006447571465666762,0.003590472261686467,0.0016959251959455226,0.0008708805060260792,yaprak
43.100278889130735,3.686916991061215,0.26938229164201133,0.039368735911871094,0.9388517940580425,0.0015501475163541057,0.811671128105833,0.15557934990415972,0.02006883365197695,0.006240917782017222,0.0028604206500912267,0.0018967495219856265,0.0010554493307823242,0.0006271510516242797,yaprak
40.53043734681584,3.6244560235246954,0.26899698118340687,0.04122974750239364,0.9626979169379508,0.001700169512529564,0.8164543427110005,0.1518345400663675,0.017077566981307735,0.005331011517420751,0.003284147496405334,0.0026884184156620405,0.002260715485897625,0.001069257324411039,yaprak
51.426638627573276,4.146275696246776,0.26016105390313,0.03360085997510533,0.9638571377507635,0.0011292023451606515,0.7863691931528326,0.16141503667456997,0.029141198043965248,0.011399755501205073,0.006249999999990449,0.002933985330068866,0.0016809290953519545,0.0008099022004877599,yaprak
39.62492716142994,3.701970816512965,0.2676288898412952,0.038889375044190044,0.9612695217932637,0.0015126139057861586,0.80383798566744,0.15617790408067686,0.02458327603852564,0.00733373057706172,0.0038196513422196457,0.0021390047516430017,0.0013445172724613154,0.0007639302684439291,yaprak
38.41973323061019,3.630908079224441,0.2747668470027892,0.03455803232522842,0.9673314164403889,0.0011945316910504833,0.8192136135878968,0.14482769155544295,0.02059147012095107,0.006965660515692647,0.0040785775387937205,0.0021385799828880932,0.001313699132345543,0.0008707075644615809,yaprak
60.29049470156059,4.105876045271198,0.26475055759544824,0.03791312846727385,0.9492223732642839,0.0014376560798842629,0.8006153751939494,0.1506750757735807,0.024431313718849414,0.009720478829241465,0.006046597067008471,0.00414842482318809,0.0027247956403228042,0.0016379389523288768,yaprak
45.27354258278248,3.7667814812813276,0.2627829460995913,0.038983529814356044,0.9657075166873271,0.0015200962136791031,0.7990730685091101,0.16504275203792612,0.022102574299796406,0.005384156507632066,0.0029827003380348094,0.0020037627911926154,0.001759028404482067,0.001651957110296202,yaprak
54.07870176134438,3.9801824418494354,0.26519417310930604,0.033941113254869586,0.9531861317708258,0.0011522448717501501,0.8031161039505293,0.1494842205146324,0.024411521625968942,0.009932963971945983,0.005616945728357745,0.0034895466650287895,0.0024028895895154383,0.0015458079524908234,yaprak
38.871566840279414,3.5772881073386102,0.2705927356763031,0.04296331071051694,0.9444466426139779,0.0018462164634862443,0.8186948475984237,0.15091684891469112,0.019300472570970836,0.004786884243037933,0.002569318060160935,0.0014681817486633915,0.0014834753085453019,0.0007799715539774267,yaprak
37.51751944865107,3.5828801873078353,0.2681657196974411,0.042474853355233676,0.9416197581744261,0.0018044904901487915,0.8147915869968416,0.15564053537261088,0.019258126194999222,0.004359464627144383,0.0024015296367076075,0.0014072657743764325,0.00119311663479741,0.0009483747609928132,yaprak
32.34117864823727,3.499860765691142,0.27324618377617566,0.03818473598713264,0.9687932629850613,0.0014583293913011473,0.820670595778513,0.14888386722425126,0.01910098634986548,0.005710446758472974,0.0025193147463851355,0.001603200293154177,0.0008397715821283785,0.0006718172657027028,yaprak
159.98168542448002,8.546668754205106,0.1467318946522684,0.013649874017511478,0.9620246064196722,0.00018782128147359965,0.7328371439040029,0.17135346619364936,0.05284875901691397,0.022068712556513527,0.01101907323632012,0.0055935933488116,0.0027815136324691567,0.0014977381097910842,yaprak
124.28430505995495,7.362438710471886,0.16649431166738696,0.015055460707669832,0.9683236134551051,0.00022780603096115548,0.7354518371388963,0.1756168359939262,0.05580933465731295,0.01940264303717149,0.008173554350304525,0.003238866396756185,0.0015124894965984073,0.0007944389275062341,yaprak
137.97565186767295,7.568498849601028,0.1813128881502596,0.014794215707204668,0.970252117230295,0.00022000220892542932,0.7262112180945649,0.1756533700134867,0.05671710224658915,0.022879413113215834,0.010515054256441211,0.004890722909972656,0.0019868561821763915,0.0011462631820248414,yaprak
169.98334569336902,8.549112375648825,0.15031916958662103,0.014797610798273672,0.9536979404056822,0.00022010190770881252,0.6638606587476065,0.1921299130644788,0.0770019591035922,0.03402412146437795,0.01698910248558683,0.008923105179366776,0.0046834823068374505,0.002387657646623014,yaprak
183.97299057154396,8.650802981425626,0.15974775287505671,0.01611528288966341,0.9494743452144271,0.00026108863379130674,0.6871617996463751,0.1523568636465818,0.0754043075035251,0.04008584348886321,0.022579903426040347,0.01249329347740861,0.006438261669339407,0.003479727140333441,yaprak
135.71250479082988,7.249112796160226,0.19030699028358838,0.016689353506565672,0.9660669878209446,0.0002801603566712866,0.7749307797023528,0.1244435606000758,0.04864542381170757,0.025592388061945522,0.01336984289667686,0.00691438099462007,0.003977298802215084,0.002126325128876526,yaprak
146.65276966792203,7.049733696174641,0.21935621579851333,0.018027082589062115,0.9633339411572945,0.00032672537602186034,0.7746155260082491,0.12062679982825711,0.0513908461490543,0.026545554806650103,0.013448930825296475,0.006755100790382398,0.004396176704852037,0.0022210648857266388,yaprak
135.03738444949212,7.539197664359792,0.18500994424220762,0.014997033568340945,0.9715053235938866,0.00022678822184702866,0.7946614105842889,0.1334036181393879,0.04074990832410349,0.016409974330741338,0.007884121745495838,0.003942060872747919,0.0020474269649155856,0.0009014790367911907,yaprak
107.55193597414677,6.5864903522683775,0.20021793434856264,0.017201925926721533,0.9662769479230159,0.00029765659238533353,0.8023893548424119,0.12428006171971787,0.04085124585599577,0.01718685549289276,0.008066364177997668,0.004109568113411691,0.0022610263226205585,0.0008555234734239951,yaprak
161.0633070213455,7.703026330017446,0.18693700881608202,0.017747015330658592,0.9593968540319249,0.0003167774622126119,0.7351299975460891,0.13218972283521555,0.0637723816530786,0.032208118714691855,0.017736693647262484,0.010209713024266908,0.005610743193516049,0.003142629384346421,yaprak
211.65539012940656,9.116389624783872,0.15134920787462855,0.015533158402978201,0.9336325306306373,0.00024260525722867365,0.6965738495061914,0.16083873146446315,0.0631658121756314,0.03499831148491849,0.020001228010898594,0.012679212844974858,0.007291314892691352,0.0044515396186957734,yaprak
183.85981530542,8.8311667087179,0.15306443191536678,0.015140967514612868,0.9418122250518509,0.0002303916062797581,0.666641158283592,0.186002020263574,0.07715265236144793,0.03498729682568339,0.017753833909795597,0.009626863387294335,0.004897609354426371,0.0029385656126558225,yaprak
206.29379380827828,9.159776783568862,0.14994657119730745,0.014674526509119936,0.9347810930566033,0.00021638128740385291,0.6582762539535917,0.16506434868052175,0.08130355991018628,0.044030469637798275,0.02517123813615325,0.014067635224354105,0.007955278434733,0.004131216021125823,yaprak
416.28024766617636,14.019999204031848,0.09023176247555138,0.010889341394358078,0.8962504036883013,0.00011936410700003991,0.4608959287209799,0.2597914862018008,0.12827929711649505,0.06823103576279509,0.03851627273846288,0.021733077589373633,0.014432000989954164,0.008120900878591571,yaprak
325.36894723484716,11.86024349108487,0.11273392527021801,0.011924231956312403,0.924311192987786,0.00014294903529290655,0.5388886318411159,0.2335631332990429,0.10795971560309696,0.05467388454471125,0.029426733910101286,0.017983004056173008,0.010780548743794967,0.006724348000421468,yaprak
227.38425860847576,10.11874210039405,0.12988790888137408,0.013031729167993151,0.9437114024193175,0.00017079939856919107,0.6436121323519552,0.21403186274477018,0.07547487745086477,0.03446691176465309,0.016130514705857642,0.008838848039202147,0.004473039215679422,0.0029718137254856436,yaprak
332.1573204566891,11.87501980908762,0.11357419414718481,0.012448322669608389,0.9169446317306531,0.00015577739620211892,0.5573177518077084,0.21928522846685944,0.10135720027190169,0.05332962344640244,0.03125579669815239,0.01805478266243422,0.011918011500630807,0.007481605144364865,yaprak
300.8013832420337,11.339204032102828,0.12000478364084363,0.012980306436222878,0.9187596442339115,0.00016957676949579041,0.5971022526050517,0.20887800822176716,0.08839515297074785,0.04714613454039887,0.027622522980233693,0.015489553020131046,0.00988498314008363,0.005481392520046374,yaprak
288.86922986352874,10.549378814638578,0.14079592627618404,0.013986882770083019,0.9200480444270646,0.00019679208134322707,0.6557551789648931,0.17924397138989503,0.07232786986533557,0.03863562634199151,0.023326587675492675,0.015000077240333368,0.009500563854588076,0.006210124665925865,yaprak
250.35806938738142,10.02782645196545,0.1372396967482075,0.014299510430114617,0.917753661425406,0.0002052302711193215,0.5917919218151299,0.22686645636137368,0.0849879383928914,0.04127234490004133,0.025236593059897883,0.014644027958163785,0.008968887239424492,0.006231830271531156,yaprak
331.63567992179594,12.05789358359739,0.11384396619427176,0.011914134131439082,0.918336052569521,0.0001427876654481033,0.5362184679464072,0.2418421661648664,0.10664198102274683,0.05262670678075657,0.02852734706467866,0.017387950320115114,0.01022911363108813,0.006526267067798308,yaprak
232.06348600899926,9.049534584054447,0.16750156970694907,0.01480343511914517,0.9481183939009133,0.0002199023949081588,0.6554815732414749,0.18134097243700628,0.07085785072766977,0.03753484050783906,0.023583152678811423,0.014880768039617713,0.010126974295431825,0.0061938680706005046,yaprak
203.78353609490313,9.076072108684386,0.1585826256136834,0.014118677568254601,0.9524504717290494,0.00020046364969862943,0.640239410680417,0.20699815837905616,0.08011049723744612,0.035374462860596416,0.019505831798619543,0.009116022099433524,0.005693677102508144,0.0029619398403883334,yaprak
77.3162796911063,5.182070162317477,0.2435421133643884,0.021678242189423887,0.9737278218033868,0.0004732946222851347,0.8483150356524586,0.08814951672735467,0.034783405353354224,0.015880044586254784,0.006962788780127097,0.0035577407582666966,0.0016643508268286264,0.0006871173138283319,yaprak
239.37638020833793,9.91608479911563,0.13226010047401698,0.015099364150086385,0.919221641663687,0.0002293786712793587,0.6609481645442709,0.1996710324045384,0.06480969070887166,0.03148250630260179,0.01943060935863704,0.01175982291088397,0.007547807907508535,0.004350365861150541,yaprak
206.37266963128215,9.190759788903446,0.16280670208217296,0.015330227736643545,0.9418822803224224,0.00023628438953683396,0.6550466028932809,0.192512877115231,0.07822847682107213,0.03745094432174784,0.018656487613412657,0.009688496443448479,0.005641402992387722,0.002774711797886352,yaprak
284.2820515546944,11.209387345011248,0.11677748600097843,0.01159602171696388,0.9446196481881629,0.00013531330909093345,0.5921155767300513,0.23654806731693453,0.09029432106341305,0.03939137785285577,0.019518942595835673,0.011096595711963272,0.006700991316365632,0.004334127411043827,yaprak
163.76176882089,8.33263888888889,0.1516926848033523,0.015777983712058796,0.9467620380075169,0.0002503601538654133,0.7352176042101745,0.16349390953026335,0.05267184917663483,0.023535532839530613,0.01192079329128371,0.006656668911050595,0.003948093285174836,0.002555548754357355,yaprak
178.3877220299945,8.687137248894745,0.1512132559884713,0.01588512529188636,0.9513966721685502,0.0002540218705803929,0.6779578035821393,0.1894095867563388,0.07222961704981223,0.03275653677264308,0.015697434249757964,0.00667064457397122,0.0034118205045770233,0.001866556509230479,yaprak
228.57847325849093,9.97627951088518,0.12734028032822903,0.01307383158165904,0.9435205015661419,0.00017179779054329292,0.6024984671971145,0.22187308399720743,0.09138565297349573,0.041079092581175536,0.021428571428538584,0.01184855916613757,0.006115879828316806,0.003770692826481038,yaprak
171.13958940071944,8.64966136822378,0.14840332544825618,0.014873213762964892,0.9540256118075976,0.00022258304572807185,0.6840875421893426,0.1992149915234369,0.06861951524952484,0.027108755746251188,0.011714036990070231,0.005605021610633344,0.002458878690223347,0.0011912579989901931,yaprak
161.18889782476322,7.810682835327819,0.17000289510663122,0.01762375040487618,0.9432325325550082,0.00031247094286903477,0.768304638195012,0.13952882789023416,0.04466638073640606,0.020939280681298727,0.013402977758695235,0.006801053856983639,0.004166411371845833,0.002190429507992478,yaprak
127.78344131464189,7.341151900711281,0.16962990545068216,0.016940485147689373,0.9526265115304955,0.00028895778745157227,0.7753785968600141,0.148260211800076,0.04202386955784467,0.017879246320973916,0.008389492504456992,0.004095417106000863,0.002720090465925946,0.0012530753831793684,yaprak
228.85621434665939,10.114658694973055,0.12079076804051664,0.014228549202045604,0.9214162204718712,0.00020363094771244886,0.6091339357050077,0.23451041858713734,0.08428606552325851,0.03479009158516997,0.01708771282805168,0.010357120904772333,0.006054459401306081,0.0037801954637596345,yaprak
116.80207852749164,7.060434057814329,0.17586988679470084,0.018120319257781407,0.9570915685504716,0.0003305745982309886,0.7889245340654003,0.13224870149689544,0.04197983501368472,0.01923311946223765,0.009288114879301423,0.0048732050106861085,0.002199816681939811,0.0012526733883268368,yaprak
229.73388265631792,9.748861180195082,0.14446242411661817,0.014127636999081903,0.9420104774955756,0.0002009000440778753,0.6760095011866125,0.17601716343548232,0.06897555742844383,0.03585932112476307,0.021071182284850092,0.011631292621237252,0.006788751819773521,0.003647230097304962,yaprak
