@RELATION glcm_shape_analysis

@ATTRIBUTE contrast NUMERIC
@ATTRIBUTE dissimilarity NUMERIC
@ATTRIBUTE homogeneity NUMERIC
@ATTRIBUTE energy NUMERIC
@ATTRIBUTE correlation NUMERIC
@ATTRIBUTE ASM NUMERIC
@ATTRIBUTE shape_area NUMERIC
@ATTRIBUTE shape_perimeter NUMERIC
@ATTRIBUTE shape_circularity NUMERIC
@ATTRIBUTE shape_aspect_ratio NUMERIC
@ATTRIBUTE class {KuruYaprak,Oak,TazeYaprak,yaprak}

@DATA
273.6485202027149,10.949803425639368,0.12151826337325276,0.012309312366092128,0.9369668868876059,0.00015247288484758711,22459.0,3294.98308634758,0.02599524410007019,1.0,KuruYaprak
219.3452338684652,9.681000823571702,0.13428467661206792,0.013350647896463895,0.9455461784533605,0.0001788838150491717,17091.0,2159.2286924123764,0.04606595223863109,0.8973214285714286,KuruYaprak
254.5077996625679,10.207060953403966,0.14702811871130106,0.013006300725796323,0.9465962923442535,0.0001697549977599128,10995.0,1833.6063311100006,0.041095370294326417,1.021978021978022,KuruYaprak
329.1040283425506,11.744517651744943,0.11866379698188594,0.013015499327765065,0.9142233728929032,0.00016998696708820342,24130.0,2560.9343153238297,0.04623494090779627,0.9285714285714286,KuruYaprak
375.4626959369922,12.131838179003124,0.12920744996109712,0.014253666033996866,0.9020393192810165,0.00020388573430166684,33292.0,3157.4582612514496,0.04196377148646182,1.0,KuruYaprak
262.5434905401639,9.786908301926045,0.1586601584275181,0.014904205275530756,0.9364414216470451,0.00022314455026415048,26302.0,1854.9545263051987,0.09605768204031338,0.90625,KuruYaprak
278.1745482389626,9.505878737759684,0.1839212641855319,0.01614906320042128,0.9327754432691496,0.00026191965621512304,25226.0,2507.7627435922623,0.050406363081727225,1.0,KuruYaprak
226.57466643314143,9.546587459387865,0.15657375059666592,0.013579480171792679,0.9532586677717217,0.00018567153719128835,26465.5,2880.7749371528625,0.04007479480750123,0.9375,KuruYaprak
195.60037463319742,8.647809183812722,0.167397162516989,0.015373418871783498,0.9404494305382941,0.0002374727696741092,32401.5,1721.7758125066757,0.13734782133789164,0.9910714285714286,KuruYaprak
324.59330412353927,10.685597882488661,0.1531728078492953,0.015814813217552126,0.9214252116357557,0.00025116352534627597,32258.0,1978.469246506691,0.1035592016405837,1.0,KuruYaprak
401.3337932442165,12.245778077000118,0.12285006710682529,0.013812518525361108,0.881499417530451,0.00019157838650196612,39019.0,2804.9343173503876,0.06232188879438918,1.0,KuruYaprak
346.81973418698107,11.999698387583452,0.12253200296187042,0.013268474158790858,0.895878012369973,0.0001766173564532167,27394.0,2599.703868508339,0.05093514590930226,1.0,KuruYaprak
424.4584655754019,12.926734395963354,0.11828019619538761,0.012675810207191716,0.8744109362067309,0.00016112690448724724,18285.0,1633.4986824989319,0.08611270896394675,0.9828571428571429,KuruYaprak
775.3416104797298,18.849165490352867,0.07044512696554232,0.009555749460781542,0.823483892482213,9.168408116749593e-05,28660.5,3949.6218169927597,0.02308780258716302,1.0,KuruYaprak
615.0584021423191,16.154949042562656,0.08714163601071202,0.010390743474766762,0.8662616327072175,0.00010830834555648547,25379.0,2944.237919449806,0.03679074364363192,0.7946428571428571,KuruYaprak
401.3529354099305,13.21454147551305,0.10500505867037525,0.011611575748821134,0.905191224586877,0.00013537774448972112,13768.5,2277.4957184791565,0.03335656754489073,0.6785714285714286,KuruYaprak
643.7160672003354,16.305862821135666,0.08802739927911347,0.010836852134678538,0.8508307426016959,0.00011781721858450682,30593.5,3735.0877664089203,0.027557347079775578,1.0,KuruYaprak
562.3870237401329,15.158696249747049,0.09550676280862135,0.01148872880748891,0.8586227957001125,0.00013256370632396097,18337.5,4007.4796810150146,0.014348527446048639,0.9375,KuruYaprak
558.2066894084095,14.15329622267151,0.11523999750690259,0.012429967994940777,0.856512455866305,0.00015517164341140858,30276.0,4297.344688415527,0.020601933510873218,1.0,KuruYaprak
16.453555601631507,2.6547833724903684,0.35503346653610246,0.025692524335910828,0.9946068829780685,0.0006630893773435947,3292136.5,43353.439747571945,0.02201104065351373,0.6027851458885941,KuruYaprak
623.6205285549677,16.31747672833382,0.0876575479917616,0.01040867423814034,0.8571791865540599,0.00010873075146091793,15337.0,2935.350618004799,0.022368162757246,0.8169642857142857,KuruYaprak
33.77265033953389,3.4976772436116037,0.3220605465275341,0.0218511259148648,0.9924580305861916,0.0004794735484854436,1555026.5,23952.53375029564,0.03406000731668785,0.7567954220314735,KuruYaprak
394.11364109098065,12.580141128309926,0.12299272901631518,0.012205520300726663,0.912045695758377,0.0001494643425176427,22299.5,2628.774936556816,0.0405506834735802,1.0,KuruYaprak
146.1525806253889,6.93592523710719,0.20571480098942102,0.01951889300255584,0.951542762887591,0.0003831832208858286,29586.5,2623.21144759655,0.05403023526252363,1.0,KuruYaprak
442.0681078948015,13.130427811597299,0.10591423739040727,0.013356511633314264,0.8609345146965127,0.00017921420218377303,7747.0,2630.8754410743713,0.014065100711620747,1.3742331288343559,KuruYaprak
387.2476506594441,12.376962152726366,0.1313996187910996,0.013595001854248384,0.8964828471477411,0.0001855166714261421,32629.0,2969.669377684593,0.04649405516538071,1.0,KuruYaprak
506.68464652076403,14.681557007733568,0.09300438291710833,0.010352535842383201,0.9058114197939269,0.00010763853705230579,17975.5,2254.5596457719803,0.04443931794602463,0.9375,KuruYaprak
294.50733107370706,10.8658035480887,0.12467211033887336,0.014103103205351977,0.908514652194068,0.0001997810474606114,19904.5,4320.499014496803,0.01339964571447981,1.0,KuruYaprak
320.11689890456506,11.532217071887896,0.12131678638761312,0.014093173325784013,0.9163490958387863,0.0001995748174091957,19488.5,1806.3687407970428,0.07505427930546103,0.5758928571428571,KuruYaprak
430.0720141111406,13.558542793011176,0.09897296904636514,0.01138929603632978,0.8990252399181471,0.0001300934725908169,10997.0,2086.45914041996,0.03174419516732135,0.9217877094972067,KuruYaprak
291.0829924305845,11.196208651786723,0.11959031870594863,0.013229431002716813,0.9246117535263048,0.00017580702708099198,31955.5,2721.5789771080017,0.0542142679772349,1.0,KuruYaprak
288.36134247173965,10.142930239937247,0.14027471030345148,0.015776704957613116,0.903218969162644,0.0002501372034818299,34426.5,3412.161796927452,0.03715724478957643,1.0,KuruYaprak
222.63796152378637,9.483910675325381,0.1395862781115875,0.01518453081541904,0.9206045300638115,0.0002318089548718632,24771.0,3164.120169043541,0.03109191453230869,1.0,KuruYaprak
430.2148022191202,13.61636103394851,0.09429820018190535,0.012462662980516445,0.8622107407513744,0.0001559238947464604,25366.0,2432.424651145935,0.05387447610994929,0.9419642857142857,KuruYaprak
209.67383037492613,9.217193483323285,0.1444313880489482,0.01621371568658789,0.9257631132654942,0.0002643336772606108,26315.5,3630.9557349681854,0.025083005953282264,1.0,KuruYaprak
413.87504416797094,12.805762455725741,0.11912429390978682,0.012704153056331992,0.9005398924103841,0.00016219380376242233,23885.0,3500.25219976902,0.024498327449640023,1.0,KuruYaprak
336.26896861346677,11.24589251421407,0.14119793503438918,0.01523396009520237,0.9058883500583215,0.00023298981224112157,33659.5,3522.328320145607,0.03409242197534029,1.0,KuruYaprak
280.99313558505264,10.94660818331893,0.11951413708034177,0.013803313271607547,0.9144095473540313,0.00019134418231612672,31648.5,3059.5932565927505,0.042484998288771496,1.0,KuruYaprak
285.8859353409862,9.993336787173334,0.137779009148095,0.014870476402760896,0.9184395717214907,0.00022224956017185567,34364.0,2574.9688066244125,0.06512828312852885,1.0,KuruYaprak
256.90476862272806,9.992417923000794,0.13681858831890287,0.015436623439551045,0.9080692282477645,0.0002394437147298089,30317.5,3656.0095586776733,0.028502870864956467,1.0,KuruYaprak
300.4074661675265,10.65358414481602,0.14280586173493676,0.01469757139955643,0.920096508517839,0.00021679773026745243,32074.0,2833.2429718971252,0.05021059277840673,1.0,KuruYaprak
600.1132351856222,15.521227845100894,0.10329627067562863,0.010913199929205544,0.8686524271622825,0.00011946587143672806,19055.0,3465.6735546588898,0.019936251893953653,0.8705357142857143,KuruYaprak
369.22527179904785,13.0587795898424,0.0996126597822367,0.011256412676962676,0.9164232403021335,0.00012691425736935356,18560.0,2455.0764524936676,0.03869526223656177,1.2054054054054053,KuruYaprak
306.61457128889265,10.765500979596164,0.13971657184417924,0.013423780069657415,0.9190352095795393,0.0001808897426345294,25189.5,3647.1567475795746,0.023796909194050028,1.0,KuruYaprak
316.2913402022928,11.221691590744378,0.1297257846244404,0.012626120881284831,0.9355373802017939,0.00016000466102741954,31846.5,3627.2643926143646,0.03041677380670707,1.0,KuruYaprak
312.8674205488438,11.462329508975616,0.1220962446032949,0.013605323153605166,0.9042937034687997,0.00018595456768034035,25989.0,3663.5659071207047,0.02433276240071547,1.0,KuruYaprak
370.7623868914214,12.961910362200085,0.10473203642742662,0.01192018161248416,0.9002899683989449,0.00014257528279209875,22517.0,3604.6197304725647,0.021777171972940386,1.0,KuruYaprak
423.55838052962713,13.674294048745812,0.10469843342483742,0.01151579381165939,0.8993468766024851,0.0001330070278028808,26465.0,2390.164763689041,0.058213817903550694,1.0,KuruYaprak
294.75035190734314,11.03271342282439,0.14238702802422806,0.0148171969609385,0.9342754599338265,0.00022038030815964375,27758.5,3709.146640896797,0.025354663512406568,1.0,KuruYaprak
43.6867827683204,2.5248504744590603,0.6164538786563455,0.10151839001368815,0.9939930622362725,0.010327718154895233,116985.0,1980.8367779254913,0.37466460059060497,0.7945736434108527,KuruYaprak
40.78253460387307,2.229376555024711,0.6961003353571803,0.15891578479284266,0.9938534165638072,0.025297201326566127,71741.0,1531.2489032745361,0.384490584130174,0.5689655172413793,KuruYaprak
36.583288457377044,1.708446947049906,0.7414157242708356,0.1684685874097963,0.9955093194983784,0.028418357985786246,66836.0,1522.832602262497,0.3621729264245515,0.2484375,KuruYaprak
45.23953534639234,2.396232128658288,0.6843981386315778,0.15087742159490697,0.9935620632069462,0.022800796972737458,75789.0,1633.959580898285,0.35672489792590867,0.9206349206349206,KuruYaprak
30.52135075704585,1.433626378975204,0.7676001114347595,0.18519146376000933,0.9962048236855201,0.03432791333279186,63758.0,1424.8914774656296,0.39462170771271743,0.26677852348993286,KuruYaprak
36.33941752201914,1.6954902788021227,0.7381549195688213,0.17274861969101546,0.9961054326781442,0.029873802042236844,75068.5,1511.9869310855865,0.4126401924366287,0.3741258741258741,KuruYaprak
33.334878116073455,1.7142284231951737,0.7225541255767548,0.16580328886567575,0.9966982013211562,0.027520678656596187,82282.0,1577.6854144334793,0.4154070686896744,0.4789272030651341,KuruYaprak
37.86682173310611,1.9267710627967134,0.6877670391726796,0.1543735028355923,0.996676506085426,0.023858141604177322,94803.5,1563.6092933416367,0.48727906047876013,0.581532416502947,KuruYaprak
41.33969875502069,2.0029542229358324,0.687519358961962,0.14969393544174123,0.9961854457825492,0.022435214516604914,85968.5,1479.1483973264694,0.4937711581016371,0.6820175438596491,KuruYaprak
43.18701222955414,1.955962100054769,0.7112766830225667,0.1648421357991106,0.9957955741619188,0.027199711543990233,77494.5,1522.2610939741135,0.4202448973812059,0.704225352112676,KuruYaprak
45.4793345782014,1.9447385676367022,0.7153464816291595,0.16151315023250717,0.9953534449019816,0.02612434057944297,71124.0,1549.8275495767593,0.3720996693530506,0.42334494773519166,KuruYaprak
42.77699858077897,1.6996426795180393,0.7517593968071821,0.1820843725310326,0.9951670354657156,0.033190834289090046,61090.0,1573.886424779892,0.30990830176925355,0.2870662460567823,KuruYaprak
37.76882695402881,1.5665983866402429,0.7647384777467889,0.194079022850618,0.9955964081387771,0.03769451466743789,58553.0,1554.3473217487335,0.3045529965409248,0.2515923566878981,KuruYaprak
44.15140693030487,1.6654057157255049,0.7585461407890619,0.18782107713980073,0.994670648117455,0.03530486726065871,58321.5,1593.2173779010773,0.28872771890153226,0.22727272727272727,KuruYaprak
49.2534956271442,2.79492875422132,0.6189541988030448,0.13572129900243837,0.9946967108071478,0.018438459099147795,115916.5,1895.6824485063553,0.4053441833398268,1.0945273631840795,KuruYaprak
39.22923299323201,1.5612203635774387,0.7634374134113822,0.18898664220346806,0.994986074114001,0.035743943195590856,57943.5,1522.4478261470795,0.3141447107030349,0.2225859247135843,KuruYaprak
35.633297753324435,1.7357298420393303,0.7210190282353823,0.17397820091845007,0.9960436727020656,0.03029395291230207,75901.0,1603.8864253759384,0.37077473944030664,0.33835845896147404,KuruYaprak
37.621687694682436,1.848905204099714,0.698171464403232,0.1662811647707622,0.9960767322797986,0.02767600868402408,89275.0,1617.2245177030563,0.4289425105621524,0.4627659574468085,KuruYaprak
34.06098672954778,1.713441207317952,0.7218068765143422,0.17894637024587434,0.9959569646615708,0.032043814037338685,80616.0,1478.2194648981094,0.46361051362671796,0.5961538461538461,KuruYaprak
36.56770788283016,1.8586844169551509,0.7061591607369995,0.1732201050201908,0.9960101290238725,0.030026772091539915,92814.5,1497.8935652971268,0.5198329249739664,0.7123287671232876,KuruYaprak
74.84715028711825,3.3552187038520644,0.6381973707188688,0.4085949620258448,0.9922629285592344,0.1669767565251523,110454.0,1631.498685836792,0.5214562240541304,1.246031746031746,KuruYaprak
70.02295215946752,3.200773941970575,0.6605213937809556,0.4644011266112115,0.9917216155306208,0.21569489525307645,100278.0,1623.155537724495,0.47829435149838906,0.8867521367521367,KuruYaprak
61.283955741852175,2.8697086893290833,0.7090151298910649,0.4630909553279626,0.9893699310145468,0.21446759338387827,76312.5,1572.1534506082535,0.38798566403324425,0.4015625,KuruYaprak
46.49196753890539,1.971510828373392,0.7851700236443996,0.5574364659561171,0.989690274614115,0.3107440855923434,53667.0,1462.5727158784866,0.31526971045854485,0.2859375,KuruYaprak
35.89583097361191,1.6211095184804964,0.8165577557214778,0.5145508346149383,0.9910752431350123,0.2647836692909158,45167.0,1519.7199048995972,0.24575593003608712,0.215625,KuruYaprak
52.760712030339135,2.609070925738035,0.6621882289671578,0.1535683405506633,0.9931450794379935,0.02361148880033989,91791.0,1844.3271088600159,0.3391049002994747,0.6746323529411765,KuruYaprak
54.34386000160153,1.9553752039049617,0.743428642995467,0.16978737754947426,0.9894696681566661,0.028869073578873167,42817.0,1450.156415939331,0.2558564690836641,0.1703125,KuruYaprak
33.59337508137026,1.339333037047336,0.7925632265619373,0.17272873598849667,0.9920813040293582,0.02988458775170148,39717.5,1438.2569208145142,0.24127861055070982,0.128125,KuruYaprak
49.15217320222678,1.7072115786785922,0.7628653834278566,0.16784781790388023,0.9893690288213037,0.028219220853280783,42219.0,1444.0142804384232,0.25443381514693203,0.14354066985645933,KuruYaprak
43.191196223383415,1.6690845477108922,0.7553964088272652,0.1634490445446363,0.9911058956043333,0.02675473860319353,43633.0,1430.440686225891,0.267969415787708,0.1847649918962723,KuruYaprak
48.458734896765115,1.673844996129773,0.7624216404629431,0.1598841573600406,0.9899815115877784,0.025603199144570845,42407.0,1423.8376549482346,0.262861187761463,0.22333333333333333,KuruYaprak
44.11497669028086,1.6787017685371015,0.7489594500481856,0.15353681658607998,0.9920026233726963,0.023615343991407706,48002.5,1444.2468161582947,0.2891950683739448,0.3062605752961083,KuruYaprak
43.318610493591365,1.8202039613628203,0.7166761322186214,0.144297332379046,0.9931644881692556,0.020859976817414267,55371.5,1441.6681679487228,0.33478464748542947,0.44404332129963897,KuruYaprak
38.704703866597896,1.7468118916199877,0.7068893963490368,0.14040536567321749,0.9941893598914959,0.019750633441306807,54723.0,1270.5382249355316,0.4259947931885169,0.6941176470588235,KuruYaprak
49.964458343014954,2.780300282458547,0.571947198219757,0.07335525885837307,0.9945866843842054,0.005421686128694656,104047.0,1730.4936301708221,0.4366157688136923,0.9248434237995825,KuruYaprak
43.537413473510256,2.7074124042124414,0.5646275778280987,0.09416139928016556,0.9955062166861561,0.008917848785193213,112963.5,1677.280430674553,0.5045876815842382,1.12590799031477,KuruYaprak
46.30399348138341,2.077798524345459,0.7288533444260289,0.17417110103494787,0.9905039011769445,0.030378928501842643,54022.0,1661.4844043254852,0.24591667854124208,0.3354632587859425,KuruYaprak
43.47397993709167,2.728585202085635,0.5840860355832658,0.09216349354840794,0.9951931543841404,0.008542241218711192,107886.5,1630.711886882782,0.509826604009291,1.280112044817927,KuruYaprak
46.44476395026638,2.5804272113461355,0.6123208280757305,0.10869411333073342,0.9943827926665567,0.011881271984681398,96778.5,1832.829637169838,0.36202999381111345,0.7748091603053435,KuruYaprak
51.72506687916824,2.6332162623516906,0.633980312205252,0.11467553096919143,0.9936195444982225,0.013217266565953135,88154.5,1807.3737933635712,0.33912389288867734,0.540625,KuruYaprak
46.595339718248816,2.047812137044524,0.7317850254353527,0.16074301419095258,0.9914846296207769,0.025883529485310475,51311.5,1505.7859190702438,0.2843793854760584,0.309375,KuruYaprak
36.84243909419482,1.4863935862939681,0.8015107312234862,0.17492275384605255,0.9912615818299737,0.030646975269870067,39178.5,1415.6782747507095,0.24565665489128707,0.21794871794871795,KuruYaprak
46.89872718621816,1.6422822691337695,0.7936935934829954,0.17054192096484228,0.9889878432829079,0.029123704676844855,38204.0,1393.7543948888779,0.24714179732133534,0.17142857142857143,KuruYaprak
37.99888027835376,1.563769037035898,0.7956148709740123,0.17372536466320893,0.9907530864626891,0.03022040537704236,39158.5,1396.3990564346313,0.25235784963236874,0.146875,KuruYaprak
36.29042008632459,1.5722382340342613,0.7861200656394483,0.1687239209384464,0.9915322417063914,0.028510116181999678,43021.5,1416.1147859096527,0.2695867219077727,0.1390625,KuruYaprak
41.925642798595696,1.850190896159771,0.750632248382226,0.1611028334107656,0.9913470281376942,0.02599939670739551,51333.5,1564.5655773878098,0.2635258351313044,0.23125,KuruYaprak
50.08382733085217,2.250546445681365,0.697615765767707,0.14630780793947856,0.9917745829941359,0.02143866683257679,70897.5,1724.9230033159256,0.29943416933179084,0.41324921135646686,KuruYaprak
32.1365725774988,1.6729565168887115,0.7389218767131281,0.14528148092440452,0.991855092065077,0.021165525501433205,46569.5,1465.3351287841797,0.27254455928994936,0.25728155339805825,KuruYaprak
47.23496434009929,2.216304598241499,0.6943301064884583,0.141950133002638,0.9922481802264216,0.020185266460978436,75644.5,1614.7463772296906,0.3645680312023622,0.6278625954198473,KuruYaprak
39.739123873578734,2.048162591918042,0.7005606687287536,0.14725215229958938,0.9939693461570156,0.02171160724509387,79291.5,1390.746376156807,0.5151582079457825,0.7445887445887446,KuruYaprak
39.44519690006791,2.0128220191135213,0.7085745653135942,0.15528266968043491,0.9940208783236008,0.02413947665071068,79191.0,1297.391038775444,0.5912129024402758,0.9502617801047121,KuruYaprak
36.842968293115426,2.0204994594636174,0.702801187996521,0.1519488609915685,0.994692554445896,0.023113202722436173,83998.0,1313.7930587530136,0.6115400206982242,1.1160714285714286,KuruYaprak
36.27204566390667,1.837355011826939,0.7473526759759074,0.48599277517102907,0.9959642936821964,0.2362296982421353,75863.0,1334.7047435045242,0.5351425318178636,1.121580547112462,KuruYaprak
37.027404639042786,1.8778895273704648,0.745649375283908,0.4623836185600976,0.995745080338049,0.21383522618420142,75659.5,1330.8052515983582,0.5368393216542836,1.010958904109589,KuruYaprak
36.38448798922153,1.820689561818024,0.7587207577402115,0.5003653726088838,0.9955944349794561,0.25038479420666376,72272.5,1353.491545200348,0.4957604157674071,0.8285714285714286,KuruYaprak
45.91961817679659,2.2345415864013365,0.7127492848879876,0.5062983109957628,0.9950734332646212,0.25635169472218544,86133.5,1654.7707631587982,0.39528131057556,0.7260536398467433,KuruYaprak
41.90479357341425,1.9011524425076658,0.7642604095429785,0.5957792569867627,0.9947424307224272,0.35496268483242954,70146.5,1541.834690451622,0.3708004434689306,0.49653979238754326,KuruYaprak
36.598574687948506,1.6632379650593099,0.7926117668400257,0.5940153053067352,0.9948827659202366,0.3528740343845744,61505.0,1519.3666540384293,0.3348074442181551,0.3933884297520661,KuruYaprak
31.93448143203147,1.4698820447718668,0.7645184840896726,0.14690552188699119,0.9896129078823819,0.021650155632832558,37558.5,1397.1686073541641,0.24178005119679513,0.15262321144674085,KuruYaprak
40.35218350553149,1.4471043412697397,0.7768776995362174,0.18231206125249266,0.9930570291966957,0.03327776765143432,42284.5,1377.251869559288,0.2801330323724888,0.20450885668276972,KuruYaprak
33.86062900535475,1.395162118969938,0.7731123684895982,0.17818710938708365,0.9941816058105825,0.031789629349799974,42840.5,1374.3990567922592,0.2849959563316942,0.1504,KuruYaprak
48.42042048475686,1.5184948898330002,0.7772080774416702,0.1805068618685115,0.9919492219358856,0.03262076784717512,40682.0,1364.1564157009125,0.2747159148813373,0.16031746031746033,KuruYaprak
27.071750289597233,1.3266753603246282,0.7655766454462732,0.16758271841638345,0.9960158483830676,0.028120015946211947,51299.5,1410.4234417676926,0.3240589057957598,0.2532894736842105,KuruYaprak
33.82781126266592,1.647734427920296,0.7398907341633604,0.17104572076922248,0.9960166653314175,0.029291177126828768,62387.5,1576.898617386818,0.3152825265392161,0.4003322259136213,KuruYaprak
34.99556251168918,1.7742376137259819,0.7119938690837542,0.16015749145960695,0.9963728639892333,0.0256797118021797,72657.5,1458.7219933271408,0.42908689705588626,0.6188524590163934,KuruYaprak
28.86526389384112,1.9007864624853221,0.6996332933665521,0.45214506669520316,0.9972763864410338,0.20446570498810557,96110.0,1556.1017162799835,0.49877247400244745,0.841304347826087,KuruYaprak
22.32152642669243,1.5810869559447025,0.7091032203626002,0.41939332081916625,0.9978877519959999,0.17592064427886445,97940.5,1463.3737931251526,0.5747270452647723,1.1016042780748663,KuruYaprak
31.12345445365873,1.8641284254107038,0.7202104050381576,0.4523918601805257,0.99689286374235,0.20466921628840454,90919.0,1398.989016532898,0.5837621122421812,1.046875,KuruYaprak
33.006680293149444,1.9023874029158443,0.7220745840294672,0.526954106973766,0.9964946348800088,0.27768715748469436,88389.0,1612.6702558994293,0.42708757084382265,0.7893700787401575,KuruYaprak
35.17562988415692,1.5852254829331152,0.7560402261320422,0.1405869538532174,0.9890596087758456,0.019821993397940156,37299.0,1412.5239470005035,0.23491752346457495,0.15530903328050713,KuruYaprak
27.668686018688554,1.5171023803237136,0.7762012491986298,0.5776000679736997,0.9965746852340531,0.33362832287440847,71561.0,1521.8519340753555,0.38827681965670496,0.4735945485519591,KuruYaprak
26.86268213962633,1.1233759192487371,0.8128362086601285,0.1914056288262465,0.9947527801286405,0.03668838012740845,37635.5,1299.0752425193787,0.2802456898060184,0.35282651072124754,KuruYaprak
35.1300344682538,1.3711822576001942,0.788209763938997,0.1855750507384593,0.9939163383456362,0.03448389076756786,43680.0,1472.121926188469,0.25328235245990915,0.1890625,KuruYaprak
35.573455860045,1.3275158113612926,0.794108684633934,0.18407178885757078,0.9939875598490102,0.03392662963893552,44455.5,1422.8843375444412,0.2759282493030428,0.1546875,KuruYaprak
52.043286082850486,1.472039405776086,0.7970372833620338,0.1794006759344718,0.9918966438552732,0.03222262624161913,41961.0,1376.381811261177,0.27834142348241914,0.22613065326633167,KuruYaprak
50.460251584493406,1.4960678058360415,0.7833568235118482,0.17481774707857548,0.9924911692820588,0.030602316921742284,46684.5,1397.2762528657913,0.30048169436933664,0.3357664233576642,KuruYaprak
34.08772314311972,1.4426472175495064,0.7580173436509141,0.16775586330241093,0.9958219525551633,0.02817380080077863,61848.0,1551.023507475853,0.3230715863257734,0.549407114624506,KuruYaprak
37.94280129577305,1.903585594734335,0.7256147575755958,0.399456702477648,0.9960367400419592,0.15962515796881283,78037.5,1440.3199721574783,0.472710496880777,0.8022988505747126,KuruYaprak
41.62796528771598,2.1925488873520402,0.6682440686717666,0.3292985274380603,0.9962066401022207,0.10848334849455625,95692.5,1653.7413251399994,0.4396960930789155,1.1154855643044619,KuruYaprak
56.093651126561504,3.03892980177231,0.6549752144430503,0.46407120509282146,0.995617209822311,0.21538059703871365,107484.0,1886.3514963388443,0.3795844758735308,0.8676789587852495,KuruYaprak
37.51468356338715,1.7827317662473998,0.7331487192923314,0.1431032813553929,0.9910494826513063,0.02052687159803416,51846.0,1561.6610293388367,0.2671477827313625,0.25873015873015875,KuruYaprak
39.759986507095086,2.3925708403678354,0.5939617905646138,0.06967200758250722,0.9966047342985805,0.00489844211522006,90916.0,1460.9402475357056,0.5352852503688414,0.7081545064377682,KuruYaprak
36.001697007899416,2.217904456016787,0.6463223541593928,0.11046885950926222,0.9944641635733014,0.012238648231082241,95299.0,1848.2783410549164,0.35056088687734116,0.503257328990228,KuruYaprak
54.72595450844995,3.0845632054742884,0.5546488085862796,0.10106173682366368,0.9929199519855485,0.010229470717015843,133732.0,2188.6601510047913,0.35082339104997423,0.839924670433145,KuruYaprak
44.525795455966154,3.113244375909863,0.5284465250444706,0.08962884917231642,0.9945089226983888,0.008049808092350159,156967.5,2398.5840303897858,0.3428544018720128,0.7577235772357723,KuruYaprak
44.09942238363058,2.9369254686667468,0.5467375253224253,0.07512063510789763,0.9944841267733617,0.005687333647738781,125835.5,2146.8439193964005,0.3430931919847485,0.9372384937238494,KuruYaprak
36.88151548961958,2.3087545517465213,0.6541106496480767,0.13619270297898395,0.9946861010757956,0.01857688168132337,98402.5,1740.344355225563,0.40826826039498226,0.8172043010752689,KuruYaprak
58.18591146947881,3.1520934435043,0.5809682489956679,0.07591937800851536,0.9929835656698198,0.005799577246154146,106590.5,1788.368740081787,0.418807281159038,1.078048780487805,KuruYaprak
47.96986000114555,2.523737663090016,0.6176360284630795,0.13116891807978898,0.9947967886514519,0.017230734542879895,118709.0,1969.4641954898834,0.3845894184195874,0.8121546961325967,KuruYaprak
49.98334022616757,2.8887882461906735,0.591577517682165,0.11872286315414494,0.992983507701088,0.014118736129222563,112749.0,1918.645873785019,0.3848867094593309,0.6897810218978102,KuruYaprak
37.5794729874901,2.2089095377836196,0.6908214947442064,0.15312142122701466,0.9928804745066726,0.0234882359657193,70841.5,1703.6092953681946,0.30673095749714124,0.4016393442622951,KuruYaprak
32.009507505943546,1.6318221158845687,0.7335204308702096,0.13960123120886628,0.9904473166646347,0.01955711033472227,44143.5,1500.3056908845901,0.24644335632124742,0.23786407766990292,KuruYaprak
44.42756689907565,1.806899866698483,0.7646283163441856,0.17751603840434943,0.9882013192341433,0.031561185714418155,41490.0,1443.695520043373,0.2501509066197063,0.165625,KuruYaprak
40.712969631607706,1.69245892274017,0.7825253977145646,0.1754610863306559,0.9875280332605053,0.03082895438535908,40697.5,1416.54119181633,0.25487027054493067,0.16535433070866143,KuruYaprak
44.24960509414959,1.9011651778518122,0.7627202818049935,0.16908822012572802,0.9878537949985728,0.028629163146331203,46076.0,1431.8721450567245,0.28240745197526157,0.16875,KuruYaprak
45.75939530116721,1.916065000461408,0.760305797383083,0.1657763462136987,0.9867812528253453,0.02752281154921094,47244.5,1630.849847316742,0.22322003224411896,0.21011058451816747,KuruYaprak
43.97609690845879,2.0454411334845988,0.725056453041845,0.15448380097983339,0.9910502789181517,0.02391215276712002,63468.0,1736.3128325939178,0.26455058552115884,0.315625,KuruYaprak
43.76575372834821,2.1084157589207635,0.7085008053713335,0.1464690463406979,0.9918342846622789,0.021496546012689254,63995.5,1527.0651381015778,0.34486107320660886,0.6185567010309279,KuruYaprak
43.628792312548555,2.1851237095088685,0.6963973674987822,0.1434988116920291,0.9924963189263031,0.020629823494014803,67392.5,1469.065138578415,0.3924093307462179,0.8513853904282116,KuruYaprak
30.890926539273686,1.8012153181911872,0.7103579787832957,0.14104314827567918,0.9951440220433498,0.01993276791666634,70795.0,1376.7636214494705,0.4693466107736082,1.1197604790419162,KuruYaprak
38.744613315695744,2.2297853473631615,0.6723906234390773,0.27056663690038807,0.9954947141067925,0.07321942314343072,98160.0,1558.6458714008331,0.5077495027147583,0.919908466819222,KuruYaprak
49.63162980525465,2.5221346675288023,0.6769696354524221,0.36030499786014936,0.9935275597513282,0.1298296617556855,96997.5,1717.6235723495483,0.41315634017113295,0.7524557956777996,KuruYaprak
40.24320640282782,1.6903994797162396,0.7702239516034615,0.1747458422797089,0.989135660066729,0.030585046930589232,39996.0,1443.0092277526855,0.24137273256132735,0.1645367412140575,KuruYaprak
25.616409333758554,1.277825720475776,0.768793354373788,0.1539340435231748,0.9954417668659468,0.023754704555752508,54298.5,1399.5260330438614,0.34836597736662284,0.46441947565543074,KuruYaprak
33.78078294804431,1.5799598552275285,0.7584348318869215,0.16092129695156113,0.9941189896871838,0.025950497607278987,51483.0,1529.0579985380173,0.27671059757567745,0.31061806656101426,KuruYaprak
32.55889524460528,1.3456612843086655,0.776326127144944,0.1643999627394174,0.9944452368164067,0.027075475680970348,45750.5,1405.712764620781,0.2909460944970221,0.18125,KuruYaprak
44.84408790755627,1.8253733616468544,0.7783926886316582,0.18264763930584188,0.9894760829406061,0.0334006193527632,44433.0,1488.0041748285294,0.2521780030435506,0.23909531502423265,KuruYaprak
36.897110790830936,1.8499048267315286,0.7515956675943662,0.17605231410679117,0.9929421390506432,0.031035695672987532,54734.0,1451.1412593126297,0.3266236827874991,0.37857142857142856,KuruYaprak
183.64935914712362,7.167185363420529,0.2200123515728308,0.01845068106231227,0.9453073254373536,0.0003421428192706646,10854.5,1668.6875013113022,0.048985738630038946,0.6994818652849741,KuruYaprak
435.47106273595296,12.535465234968315,0.1288429996392604,0.014342610145334077,0.8988852504015804,0.0002064356426402696,41458.5,2545.9911049604416,0.08037290855065135,1.0,KuruYaprak
148.5014798960404,7.890452367906094,0.16665565014086192,0.017718743642400715,0.9512053796850395,0.00031494830750183325,21297.5,1380.4722111225128,0.14043752060730913,1.4933333333333334,KuruYaprak
322.49256272569414,10.755858763427593,0.15934118823864377,0.014075011436577807,0.9450259515965066,0.00019878043780971358,27817.5,3291.333373785019,0.032268903904728884,1.0,KuruYaprak
339.54195559127544,11.066222070947202,0.16919176212714876,0.014309560262798893,0.9474283420772267,0.00020563829997640516,23779.5,2388.8094259500504,0.05236602088325831,0.8392857142857143,KuruYaprak
204.31871071566144,8.262899064717562,0.20881809671791696,0.021348744191299594,0.9532374553232392,0.00045859479677416167,41305.0,1954.5971014499664,0.13586199569657173,1.0,KuruYaprak
213.1528729688231,8.524350528975205,0.20192447016581141,0.02051028347675765,0.9514090987736517,0.000423185299536363,40424.5,2036.0356994867325,0.1225416556671955,1.0,KuruYaprak
278.5922313896782,9.710203791156331,0.16584229613213275,0.015962140470306852,0.9185041802214424,0.00025568419182973683,24236.0,4256.702988982201,0.016808312392112182,1.0,KuruYaprak
333.7794677733854,10.076955873155372,0.18333090557937054,0.018631416963121785,0.8744440892617118,0.00034874696231587844,30664.5,3542.5049461126328,0.03070611139660545,1.0,KuruYaprak
329.7625541596239,10.547506413332922,0.16509838796054138,0.014255011424425456,0.9354044552304512,0.000204288912627384,19906.0,1504.1950795650482,0.11055681948063013,1.5664335664335665,KuruYaprak
260.5545340791814,10.180257509093149,0.15703168462918704,0.016246168093683233,0.8960609978489897,0.00026497001977033295,8724.0,1274.9991220235825,0.06743816576570326,0.5,KuruYaprak
45.42847134503651,2.546099298980419,0.6852896227114438,0.2307410436475157,0.9930113072876594,0.05324401082930284,79290.0,1737.0134029388428,0.330234120016153,1.1693121693121693,KuruYaprak
49.67914503993202,3.7036700865127345,0.4536722941630481,0.04290249163154317,0.9940866057817057,0.0018460508328997428,169858.5,2415.3880734443665,0.3658670625023977,0.7318255250403877,KuruYaprak
44.448218487984064,2.773449076115951,0.6282588491205597,0.08957445438789538,0.9936654813794336,0.008035533273342537,103499.0,2383.76274394989,0.22888638603784237,0.8134715025906736,KuruYaprak
30.017336236839938,1.7081888811703156,0.7609068862252659,0.14791043702033488,0.9932765610593661,0.02189422400701403,63637.5,1612.094575047493,0.30771023438735134,1.6608996539792387,KuruYaprak
30.93332326102267,1.818042022151912,0.740786545190007,0.11529356555857083,0.9927943098887948,0.013313119973671295,58874.0,1411.1412571668625,0.37152875200739166,1.6945454545454546,KuruYaprak
40.054188085797435,2.901495428123156,0.5414819642276024,0.048976439315558506,0.9939645991005105,0.002407308920292516,146404.0,2084.4936314821243,0.42341053665778516,0.6825396825396826,KuruYaprak
240.50022758901474,7.079326143276908,0.45292053644153807,0.06580283673824525,0.9786023113650073,0.004355612443847972,122343.5,1848.5941393375397,0.44989132703967705,0.4509493670886076,KuruYaprak
176.01754036733917,5.679956890155827,0.4801771078398949,0.06788721538994096,0.9840089729377035,0.004638135671722304,109134.0,1746.5768939256668,0.4495670949363288,0.7240143369175627,KuruYaprak
107.85056819875257,3.8349604557288677,0.5145623386766305,0.062202122623401405,0.9876257462770827,0.003897747154088054,77003.5,1456.0945740938187,0.45639529889787217,1.5096153846153846,KuruYaprak
81.3681802838172,3.1746740110084297,0.522597654217116,0.05941287976704107,0.9895926762913705,0.00355874263839816,65992.0,1361.8519370555878,0.4471377826823616,2.2429906542056073,KuruYaprak
134.55101979234396,4.7184299611456595,0.4695407613058976,0.050325691115148334,0.9863559129998973,0.0025542872572462006,91933.0,1650.6113812923431,0.42402515912965927,1.1064814814814814,KuruYaprak
144.4707115552416,5.134814693318961,0.48061602098936956,0.06366472222652915,0.9868062167147635,0.0040758410841823895,119574.5,1832.7707623243332,0.4473342401035815,0.653910149750416,KuruYaprak
125.2929941770318,6.575745561681367,0.2020368428573791,0.017411034561827618,0.961154716121959,0.0003047530543601025,42994.5,3172.1618007421494,0.05369231194144711,1.0952380952380953,Oak
108.84005616942463,6.51408456043071,0.19934478100221104,0.022663824591576582,0.9391915776716573,0.0005163545255095689,13600.5,2432.3140395879745,0.02888853015717788,0.8803418803418803,Oak
906.69791570866,19.762602526098593,0.08648309516637535,0.010216657528585056,0.8426775463348821,0.00010480886996298436,21925.0,2277.1454323530197,0.053133439447968916,0.5130111524163569,Oak
589.2003987861164,13.675028238263241,0.20489921346292905,0.021713826855098053,0.753493568426121,0.0004742651249968819,23082.5,2165.245937347412,0.06186973323142681,0.7290076335877863,Oak
240.57603960706422,9.6899503412621,0.15025099899654695,0.013820827650206174,0.9566460549015205,0.0001920295428654528,40265.0,1356.832601904869,0.2748432193481563,0.8473282442748091,Oak
469.57817527779866,10.967694403731771,0.2374493487419585,0.024290970173579535,0.8972263474815239,0.0005934794939042566,192627.0,2405.8864237070084,0.4181930221555466,0.75,Oak
630.3978696585672,16.625701685319644,0.10166433294292156,0.01211110281337644,0.8459729417582476,0.00014723635653310498,26123.0,2834.6988158226013,0.04085254056222442,2.0058823529411764,Oak
322.73944683573865,8.536218296377317,0.30554382294057686,0.024244589359969957,0.9213608055251855,0.0005921097777932737,68524.5,5664.694094777107,0.02683507511570302,0.7603960396039604,Oak
828.7201860910656,16.397725321199687,0.19557807224348173,0.017816436750013674,0.7451665199320064,0.0003191071642773969,29540.5,3167.357758164406,0.037002704295285016,1.5763546798029557,Oak
116.25996599080665,6.705325196698183,0.20772918020960532,0.017932909485871628,0.9609848629954841,0.0003236573781836416,92254.0,3768.546574950218,0.08162952993002205,0.724373576309795,Oak
105.77557969647222,5.418879360239599,0.2919308494368458,0.03231607453145323,0.9765382180101891,0.0010477527197330758,173482.0,4451.7526396512985,0.11000241873871967,0.75,Oak
210.28599134842233,9.1689361371485,0.1471574726271694,0.014425845899317153,0.9521646404734694,0.00020910016637112243,53771.5,5498.513291716576,0.02234968761035341,0.8960396039603961,Oak
540.3174186365588,12.23792350274973,0.20099602387970156,0.01575223929773481,0.8730356970521629,0.0002495302418884194,28867.5,2725.686621427536,0.04882780409864184,0.8014184397163121,Oak
252.26244038940797,9.625239371654414,0.15248804859890236,0.017847319485068507,0.92395837453748,0.00031989775543094575,25031.5,3984.4847321510315,0.019813098802048457,1.3333333333333333,Oak
70.85770822033335,5.318429681665437,0.2120693134652165,0.02666675080812842,0.958927475511618,0.00071448565211051,11956.5,1419.6092936992645,0.07455491243798211,1.4935897435897436,Oak
109.1870935858791,6.657054674134291,0.1941358374501091,0.016000116906097615,0.9700811747719713,0.0002578495937773282,95203.0,8861.954313278198,0.015233562700577782,0.75,Oak
75.88276423813204,4.837523556862046,0.3146889565157354,0.024693137580448023,0.9805708124903656,0.0006136933537593425,50288.5,2034.711885213852,0.15264152698119166,1.2344322344322345,Oak
442.08755870064704,12.41588340279694,0.17420764133285466,0.015591538064383188,0.8550166883314451,0.00024444670472799113,23779.5,3931.940577983856,0.01932852400222695,0.5,Oak
802.9913226418001,17.365898333514256,0.13186328372181938,0.012689399238285938,0.7886996026190718,0.00016172174973724202,89114.5,10985.287683486938,0.009279730618537365,0.75,Oak
100.2667081181703,5.308482745122307,0.28241088034463663,0.02240582107254083,0.9645175749250483,0.0005053723804248573,34060.0,1485.5920469760895,0.19393463454195292,1.0465116279069768,Oak
151.47012843427794,6.5894234876069895,0.2377260877128966,0.020727555223319233,0.9433717552667187,0.00043219416310860714,75728.0,5034.658394694328,0.037542771812418475,0.8347826086956521,Oak
103.56403662655794,6.227156027103925,0.20720545126499545,0.018426194262684083,0.9690912161640676,0.0003415039381376745,39132.5,5166.028012633324,0.018426122086391893,1.1566265060240963,Oak
179.114288312461,8.121124278233662,0.18703687526111626,0.01707858125546003,0.9395826828083453,0.00029330935973422934,60278.5,5157.768127083778,0.028474012571992034,1.2549019607843137,Oak
644.4903494640378,14.405826194040559,0.1614040631419177,0.01563717403462087,0.8145224176621573,0.0002456306574619406,37136.0,3282.6298353672028,0.04330730537193532,0.5575916230366492,Oak
1609.6122101447227,25.53062277948755,0.10119111349759172,0.009336574795551326,0.7160503511739766,8.74874864215818e-05,47482.5,5611.238252282143,0.018950733427007562,1.2268370607028753,Oak
176.47953973501134,6.33754928992856,0.32203297376531914,0.030535277327870543,0.934966066157569,0.0009385880583274427,33022.5,2007.3981776237488,0.10297997019050635,1.4972677595628416,Oak
396.30740768876785,10.67347713971705,0.21255473527361055,0.01686616298437995,0.9130619809898548,0.00028634896160887143,42023.0,3079.9536479711533,0.055668376530141166,0.8184523809523809,Oak
302.16161193836746,11.198635532589655,0.13837107029747364,0.015625633325860092,0.9072015306655603,0.0002451728754301903,62895.0,6185.093150734901,0.020660151223650596,0.927536231884058,Oak
207.99002093351743,8.627379865776355,0.15796422668090707,0.013792884903076758,0.9653904859215114,0.00019122138772541982,74915.5,4374.435964822769,0.049196863936005406,0.578125,Oak
98.22820902370793,5.670829390751415,0.23415989345870816,0.019648491545238338,0.9740671579408615,0.0003888174542685126,40681.5,2448.358635544777,0.08528187784133352,0.5253807106598984,Oak
111.49715338964828,6.213763878508178,0.2077648624441146,0.018228128486170985,0.9658445445844187,0.00033398751128768434,40934.0,2590.684533596039,0.07664167444219676,0.680628272251309,Oak
60.106504560177044,4.800106745611868,0.25273507679396107,0.020216437471664225,0.9825862005489564,0.000411710913189014,94498.5,4724.239131450653,0.05320727702252527,0.615234375,Oak
265.27798528699725,9.909948839474946,0.15808204414513366,0.01286147116340777,0.9522301024955824,0.00016677802605897992,100198.0,4353.306022524834,0.06644013735513282,0.9230769230769231,Oak
332.1086335329349,11.873313805144427,0.1164771291609338,0.011700046159632414,0.9264944960326355,0.00013750471746591417,72052.0,4976.648290157318,0.03655796440536573,1.106628242074928,Oak
86.89776559029364,5.398527133700885,0.2718809563091228,0.03326357267639698,0.9426188653371378,0.0011149083766977665,138155.5,5263.636096835136,0.0626622997666556,0.75,Oak
389.369765566869,11.62434356772111,0.16278564630428044,0.01400641089782219,0.9184826038068483,0.00019701287366051415,107035.0,4125.4136662483215,0.07903158129235796,1.0756302521008403,Oak
83.62549290177783,5.090481112217363,0.2583586285445797,0.022207826610802315,0.9772142182779984,0.0004964470201733107,15924.0,1135.293497800827,0.15525504874097343,0.49458483754512633,Oak
723.0058296759582,13.633099820832904,0.24572513256584902,0.0195250663725395,0.8492744438274725,0.0003836404151045694,125324.5,7806.241547584534,0.025844127425615843,0.8222698072805139,Oak
851.762316766255,17.6528755935906,0.16808143047482135,0.015531379776286382,0.8076413197345385,0.00024261951805328085,95609.0,8756.242758989334,0.015670146361431683,0.75,Oak
140.1227763264436,7.430565028907834,0.18887251814221886,0.020799677921613666,0.9516505478620341,0.0004354402651753844,33042.0,1737.6753083467484,0.13751147194630942,0.4418604651162791,Oak
492.37831800874847,12.100037065496013,0.20894805615076004,0.02133331201571609,0.8692852909666721,0.000458220635120323,4017.0,850.1807998418808,0.0698375684688133,0.7352941176470589,Oak
141.1381118957758,7.302408385960377,0.18617623994119295,0.015401784585791143,0.9661346461915161,0.00023884165029973095,66235.5,4081.5974308252335,0.0499620612319439,1.1114457831325302,Oak
446.5486496060727,14.01305564694659,0.09956452137323436,0.010816768390945558,0.8994602381964789,0.00011750589873646029,27552.0,3331.576011657715,0.03119345938060831,1.4597156398104265,Oak
105.54927151413938,5.9759001831206735,0.24345489732118877,0.019785342330747652,0.9732026895875547,0.00039510424044923443,67567.5,4272.886754631996,0.046505567548245134,1.1671732522796352,Oak
626.1370221453946,15.86134157159458,0.1099184626988179,0.011274190896344276,0.8612905803014835,0.00012763296148100804,28903.5,2736.7749358415604,0.04849334388982264,0.7887788778877888,Oak
107.71478038743166,5.993955969480725,0.23318811953176885,0.02023976999202794,0.9689069417854557,0.00041264904110232793,34628.5,2324.9860532283783,0.08050128995493068,0.9188191881918819,Oak
345.77534619528956,10.8710434207041,0.17161974961827103,0.017753053096808594,0.9034115232867208,0.00031683854709378776,185547.0,4512.570961713791,0.11450269592924037,0.75,Oak
108.07560351046664,6.305995674177188,0.2063670819455864,0.019809494529543382,0.9712031510481205,0.00039477938259221203,27968.5,1301.0163663625717,0.20764119483246046,0.6123188405797102,Oak
338.4452213718815,10.454295128914495,0.22042935534173513,0.023085320331435184,0.883736631668822,0.0005361055667031308,8936.0,2285.1353253126144,0.021504491426791433,0.9109947643979057,Oak
87.73582217415242,5.189977426555093,0.31031094953593846,0.025006307319400817,0.9690622469985162,0.000632304952145016,126124.0,5418.810637116432,0.05397586992851187,0.7789046653144016,Oak
182.36085956165522,7.741641014767811,0.18933647469690412,0.015011826352113098,0.9675387903459793,0.00022665685627542453,59879.0,6073.824036240578,0.020396703892524765,0.8868360277136259,Oak
94.62449766008088,6.256412943208684,0.19343765735176383,0.019084268027560965,0.9607921717283545,0.0003662338836559383,57135.0,2702.174870967865,0.09832980862228934,0.7804878048780488,Oak
378.00641080759607,10.45328139763123,0.23255419389021126,0.016731588947373484,0.924219525647,0.00028175928410645133,66069.0,4406.918282032013,0.04275014604308666,0.9056603773584906,Oak
286.0199161283044,9.855167663230754,0.20612430543017107,0.021210993638725424,0.913210435180106,0.000452447399851756,138580.0,6651.588538050652,0.03936041497064518,0.75,Oak
456.90884399587026,12.535885351600765,0.15278871212484005,0.014671126115617869,0.8713087662598334,0.00021623329281300776,61227.0,8651.316789865494,0.01027988873852723,0.8402625820568927,Oak
129.632106130125,7.032861721734843,0.1896919542344121,0.016850988490492328,0.9675020108306844,0.00028555637322985475,33912.5,1981.7068343162537,0.10851527029856048,0.8929889298892989,Oak
32.79385482970772,3.21993215758169,0.37744469833943045,0.027290722138672792,0.9881988634983152,0.0007507171771924578,50367.5,2744.2063940763474,0.08404787069185811,0.4868421052631579,Oak
227.8521057477186,10.095835071103982,0.1285366517371101,0.01217857391023969,0.9558811423409896,0.0001490488098504741,172455.5,3043.1626768112183,0.2340111634961084,0.75,Oak
319.7730312954557,10.792429637982114,0.14512881858673413,0.014099822149242752,0.941711655544475,0.00019971239358857672,71711.5,6247.144884824753,0.023090615748534108,0.75,Oak
961.3171761613287,16.487308072228146,0.25699396124210894,0.03210518154718245,0.8232359896307591,0.0010371758255464535,174532.5,5619.376212358475,0.06945603001368914,0.75,Oak
152.41500996550155,7.975510518817458,0.15714000531349015,0.01468349647789501,0.9627677288129965,0.0002167596186869329,19776.0,1599.3321624994278,0.09715630184644972,0.7256637168141593,Oak
538.4511374996591,13.503358555580718,0.17482662875155028,0.01737983658951086,0.9534605704057901,0.00030393726013084894,55974.5,1981.7514296770096,0.179102532397998,0.5895522388059702,Oak
133.51446152328168,6.963872978126202,0.1870430136411016,0.016559264828094587,0.9688747901437771,0.0002758124880537586,34983.5,5047.140713095665,0.017257675373528233,1.3473684210526315,Oak
115.37682864608843,6.855886964925425,0.18775136273609028,0.016076611154823228,0.9677156377928813,0.00026179443826393814,86370.5,5334.34677362442,0.038142820861291886,1.0185676392572944,Oak
109.18331601451797,5.686070334947599,0.2614195233932893,0.02185547409420088,0.9648962832853426,0.0004807371973802107,17996.5,2277.3880721330643,0.04360374903672965,0.6666666666666666,Oak
688.9050659172465,13.51739057707953,0.22001365272653,0.019519246219623428,0.8201553057503221,0.00038348868115266034,80691.0,9364.845790028572,0.011562019596879964,0.8067226890756303,Oak
176.99448026438446,8.422255748419373,0.17845340504992163,0.02390472817666987,0.893091172840055,0.0005744083473515727,13389.5,2854.0297696590424,0.020656523240906464,0.652027027027027,Oak
210.61719058118325,9.344497699298024,0.1550028848614629,0.013968879603318073,0.9546044762396353,0.00019624804897447836,37509.5,3081.8043743371964,0.04962962624022506,1.0,Oak
108.37177663304541,5.069095214450654,0.33489458077701173,0.03461262562238927,0.9290123900487283,0.0012064708691563687,159083.0,5499.3589651584625,0.06610122361464028,0.75,Oak
301.3938205190794,10.72726023092831,0.12716994887665745,0.011851040919306928,0.9397254964827416,0.00014126098612040757,86372.5,4831.989347457886,0.04648720311929669,0.987146529562982,Oak
411.6086840152554,10.968324149898496,0.22296403249834826,0.02033004751581353,0.8602732861299135,0.0004159748330580512,108627.5,9426.92191016674,0.0153606583443548,0.75,Oak
195.25391825704702,8.739843927303333,0.16835618950951306,0.015989181816170973,0.9553590902648811,0.00025766531084956996,64646.5,6888.472874045372,0.017120205596614587,0.8552338530066815,Oak
183.25574801086339,8.758505890661166,0.15514627855190422,0.01548731858166853,0.9346225314509337,0.00024096419238547184,70062.5,6591.242426872253,0.020265667984547403,0.9672544080604534,Oak
298.6381258654663,9.56133733993813,0.21557981746186905,0.02284970868295326,0.9157417580344049,0.0005255469586770927,178963.5,5262.0726091861725,0.08121956438068437,0.75,Oak
148.46057029298424,7.806932390051857,0.171205911517535,0.015167937879726872,0.9620242870350213,0.00023158220648089456,52504.5,5112.440140843391,0.025243520309021165,1.119533527696793,Oak
258.54719370483025,8.093693098347732,0.2793496857345692,0.03231700159705704,0.9336733742889807,0.0010500212464893903,176976.0,2593.4154225587845,0.330658781215148,0.75,Oak
134.9872089454958,6.407539252976312,0.21618352427481186,0.021448484446431618,0.9707679049024728,0.00046336344643119166,37049.0,2615.4540873765945,0.06806003263317607,0.8235294117647058,Oak
158.71633799845773,8.825795830269241,0.13116576198060695,0.013242324909172787,0.9594849530517289,0.0001763235952908471,64629.5,6555.821075081825,0.018896722085852538,1.2467532467532467,Oak
261.45904037101593,9.966275869187323,0.15760565132264065,0.017839374952983583,0.9294433279571158,0.0003197175472289194,21846.0,1944.7778993844986,0.07258414614938122,0.7727272727272727,Oak
31.636995157377363,3.545215763198026,0.3423230799664587,0.027696298149954387,0.9929273367714764,0.0007736957535043657,114180.0,3567.8014072179794,0.11271937129485501,0.742393509127789,Oak
49.98722292515961,4.3691063186805845,0.2684362883593122,0.022421596882792966,0.982174375982219,0.0005058215380017177,65877.5,2769.0104361772537,0.10796867918786275,1.641025641025641,Oak
265.82698405707515,10.686782418943288,0.13698536848842516,0.014883939220846095,0.893459669901214,0.00022255681753068969,27110.0,3185.3993866443634,0.03357465799013285,1.0940170940170941,Oak
471.59930587070903,10.741205773090597,0.23628423395419296,0.020859876176544345,0.8609760069833226,0.00043789881985784843,24104.5,2788.5983103513718,0.03895256595389856,0.5552631578947368,Oak
153.45121304391944,7.8694294045074,0.17682212436992334,0.01683129198206179,0.9640628759947698,0.00028476207187636807,137317.0,3651.5861196517944,0.12941096496736815,0.8767123287671232,Oak
139.2382332717205,6.5593715517377875,0.2707189471176511,0.022665694403887684,0.9426803276528346,0.0005174239306757727,78973.5,5579.154989957809,0.031882648934258295,0.8707482993197279,Oak
1050.1101394150935,17.44004953120143,0.15783464348926574,0.01707666286102469,0.7579865922996929,0.0002929867801597054,5253.5,469.46298360824585,0.29954073529543157,1.1728395061728396,Oak
197.79440037188198,8.300081322743328,0.19536283000107707,0.015697735821053743,0.9599547650293804,0.00024776291745568906,44319.0,2995.1841002702713,0.06208015224111403,1.0674157303370786,Oak
113.59439308631624,7.034408075842913,0.18656472070954094,0.0179076166422949,0.9542931547297798,0.0003224409206162258,54585.0,2858.022631406784,0.0839753556363007,0.405982905982906,Oak
362.22518379213375,11.1899306591216,0.16104581168866344,0.015773028795719773,0.9415248465881991,0.00025017718924710873,32932.0,4932.991436004639,0.017006198649373635,0.3046875,Oak
88.88222188941822,5.213170038712303,0.2731457323110682,0.023290828787804675,0.9676878926375554,0.0005459860283130985,34722.5,3522.245059132576,0.035170756792996284,0.6684931506849315,Oak
94.24771971336735,5.992084076243451,0.217429435683583,0.02134539337413262,0.9540248668068733,0.00045814940765700226,55733.5,6347.713430047035,0.01738167226134249,0.758893280632411,Oak
127.07303969605726,7.521092333903997,0.16439215236112548,0.018172894548462878,0.9385967839956149,0.0003320578025207091,36770.5,5532.218917489052,0.015097696285660513,1.2673267326732673,Oak
210.17534249802804,8.926049737783494,0.18381321413027946,0.01638462858362155,0.9349918251393392,0.0002698971743846729,59309.5,2825.152572631836,0.09337923528232317,0.5723981900452488,Oak
222.72964989245665,9.203423329923606,0.16456786515242908,0.013953206620982836,0.950093734415385,0.00019585032975892214,64007.0,4962.422892451286,0.032662527854794385,1.1815384615384616,Oak
176.09489654811995,6.361070203051867,0.3099374769352389,0.025250588974111608,0.9401623550383226,0.0006421510588526646,76620.0,6317.363140821457,0.02412572245640525,0.75,Oak
367.1444930042726,12.466159913628198,0.11827764591119663,0.011577635960038246,0.9143204730220662,0.00013473730687255453,57490.5,9350.176745176315,0.00826354333749367,0.75,Oak
105.90723163792867,6.317958650875731,0.20583624474048642,0.018137489400916192,0.9668673091943321,0.0003309881533363185,71717.0,5688.863580942154,0.027847161868912645,1.0267379679144386,Oak
211.8517853372297,9.042741628227125,0.1832075637541266,0.015882451099828034,0.9369089236791261,0.00025365700222663897,63702.5,6472.541853547096,0.01910806041466554,1.1636363636363636,Oak
385.1706002073984,12.389918779814712,0.12788160046653527,0.014035778984887509,0.9468405738283416,0.00019793954449333188,165984.5,5063.857319831848,0.08134193094346974,0.75,Oak
150.86727509704838,6.197418212111215,0.3198217457505853,0.0294534061448789,0.951361530385525,0.000873233562494099,35944.5,2877.2846014499664,0.05456028973038771,1.5546558704453441,Oak
119.36223213960031,6.908865177422012,0.17897707760512233,0.01715672534813597,0.9704686398862051,0.0002959702326776182,18518.5,1192.0945740938187,0.16375487859685955,0.967391304347826,Oak
488.0455754431607,13.544496608701412,0.14815514811557656,0.013791153292462577,0.8882224734893374,0.0001911868568423475,23385.0,1762.1849757432938,0.09463335776883512,0.4837662337662338,Oak
571.8633438732664,13.76582586478199,0.18502072061102764,0.015777632642113484,0.8224363586402066,0.00025028594123311293,21923.0,2067.5819442272186,0.06444428150536123,0.5400696864111498,Oak
642.3420536710637,12.583264909476643,0.2646154908417137,0.03055532590957543,0.91085477517585,0.0009385265161692013,181027.0,3618.767796278,0.17371278563917217,0.75,Oak
120.52443897807814,6.9069220070094905,0.1995114884137028,0.017233670525502072,0.9627228068499734,0.0002988146864586996,55802.0,3228.1302733421326,0.0672910838511123,1.0237388724035608,Oak
545.6617624031747,13.410365628990025,0.20307956368430116,0.017353511743314284,0.9038248543551684,0.0003028883279330034,122473.5,7683.236496329308,0.026071354233894808,0.75,Oak
179.4968479110516,8.335719534451698,0.16943327081932408,0.015767358105696686,0.9475205511890422,0.00025026195509356245,18528.5,3281.7252889871597,0.02161950162750558,1.2352941176470589,Oak
695.9554090640155,13.017528115051118,0.2640017140970514,0.034871493420898764,0.9266410521926183,0.001220628306435869,167361.0,3456.223640680313,0.17605990097549276,0.75,Oak
169.9335115169703,7.356356191914452,0.2057969159901523,0.019535067684785357,0.9581428748499928,0.00038378702194451794,169060.5,4954.769005537033,0.08653766818737965,0.75,Oak
66.25760447240843,5.072341019565728,0.2245149231391928,0.02189787574848348,0.9715798165511975,0.0004828583695861785,20458.5,1839.197167634964,0.07600235921351885,0.5,Oak
121.14949536162759,6.752112163049794,0.19579091042212857,0.019393646726978603,0.9658761531240387,0.00037817992646910036,16064.0,1582.2438509464264,0.08063372559472397,0.7854251012145749,Oak
284.08985538697686,10.085496496804108,0.19841456116745365,0.019068806103972793,0.9489527606729715,0.000365891742598011,124272.0,4119.34050989151,0.0920296491388323,0.8458149779735683,Oak
575.8687572104112,13.877918283385796,0.18651953336425323,0.01683825214838627,0.8165289122537148,0.0002851581585184871,60562.0,3627.340511918068,0.05784068401778145,1.3659420289855073,Oak
298.9428067465435,8.973359772385649,0.26499849616807203,0.01912790233851573,0.9213036636240622,0.00036830668400490073,44406.5,2397.5058221817017,0.09708163181281558,0.9938650306748467,Oak
97.17952279357829,5.801128117893534,0.22077186453710312,0.019660873880877013,0.968718942010241,0.0003887603310330594,59412.0,4764.433001756668,0.03288982691537654,0.7868852459016393,Oak
262.8424595303585,9.080479685742608,0.2094686102886612,0.017194521388314093,0.9290857762671967,0.0002973180614640462,46447.5,2200.5697519779205,0.12053187966231736,0.4772117962466488,Oak
725.6483249732656,16.288460121048576,0.18120468030134668,0.015685847471197424,0.8321657033825982,0.0002473470378416413,101281.5,6262.424105644226,0.03245301401728159,0.9035294117647059,Oak
132.65265660098711,6.789978963237555,0.20605665013652308,0.01636516979507933,0.9684045676399209,0.0002693643981678812,95649.0,4321.271532177925,0.06436758049004275,0.525390625,Oak
61.553924722458675,4.083637652641915,0.33844335067209763,0.02480199375719324,0.9791529890236617,0.0006199081954722771,119843.0,5097.913227915764,0.05794789413623689,0.75,Oak
252.2215778596437,10.328682668135048,0.13944050244012163,0.01327757619369091,0.9511667078650157,0.00017744261584126648,68558.5,9609.220456957817,0.00933028385962854,0.7664670658682635,Oak
402.3979450839157,10.924935445207606,0.19941768442216617,0.01731602283768286,0.900828260171386,0.00030186285067416226,20922.5,2991.4267377853394,0.029381008465422177,1.0811965811965811,Oak
108.69934410545335,6.689381707279868,0.18947891743049763,0.018256095092042155,0.9583366782631937,0.0003352018922836796,105970.0,5599.66762304306,0.042468634693312114,0.7695390781563126,Oak
180.9919400416103,7.512455238952705,0.20376080395143975,0.021624424477614743,0.972267808078542,0.00046927126497008597,155648.0,4745.708043932915,0.08684631086228906,0.75,Oak
590.1348571132676,14.434959623362586,0.1712989523125467,0.01628442917583249,0.86485218666058,0.00026679849683325005,80206.0,6453.0098913908005,0.024204273982936092,1.1566265060240963,Oak
606.2627685706661,12.773965414148565,0.22702236594020087,0.025010226987057287,0.902608213944108,0.0006280428433543368,166924.5,5471.920367360115,0.07005681855309287,0.75,Oak
587.7115807792937,13.878163762516493,0.13423564877983213,0.01069604729089608,0.92363246110888,0.00011495534043778198,78789.0,8518.66499209404,0.013643706665799676,0.75,Oak
157.29333452496203,6.460786364911837,0.2730287932072758,0.022617610750077406,0.9655866514884028,0.0005149790290910916,72274.0,3751.7181507349014,0.06452552497521549,0.75,Oak
581.9925168139068,14.453255634626647,0.18077606693261464,0.020000076950220057,0.81162848823672,0.00040224258350598564,108056.0,7675.56239759922,0.023048270256621588,0.75,Oak
354.4023891003485,11.973038103653462,0.12410658978676015,0.012308034765599864,0.9222891932793832,0.0001522522968080508,39998.0,3875.094907283783,0.03347213797104602,0.6168478260869565,Oak
213.3610593311842,8.115090320393014,0.20008946233727692,0.017170663512881955,0.9447984731766379,0.0002963582670318764,31402.5,3690.2349548339844,0.028977842774660048,1.6991150442477876,Oak
476.9040661631019,13.369018723300956,0.17243146363527395,0.016208094598485098,0.9028169882691536,0.0002643270455759423,51055.0,5058.236163020134,0.02507551955527293,0.7437325905292479,Oak
456.65048773257416,11.517620068992379,0.24974915418033397,0.026936516048921735,0.8451909518232454,0.0007299059168705429,150603.0,5696.17729139328,0.058327920178725894,0.716796875,Oak
149.02781371464775,7.4598309041414685,0.1880671928432358,0.015339210762978511,0.9625502038728855,0.00023661878310032148,72383.5,4938.096995353699,0.037301836191642804,1.0747126436781609,Oak
293.51895603785965,9.865207606557972,0.17449910841692517,0.01692657108765306,0.9659144614585944,0.0002882766956495941,129841.5,7287.571290016174,0.030722585081226224,0.75,Oak
79.63210882709193,5.645875728898803,0.2169921138295182,0.021714016980831155,0.9618913858363565,0.00047504425607676357,32593.0,3985.7324286699295,0.025782078140791958,1.6340425531914893,Oak
146.21796228442838,7.866206623845667,0.16320992753593974,0.015319795609869716,0.9616703760218419,0.00023604234247870897,45402.0,4390.207602977753,0.02960156915823731,1.238709677419355,Oak
108.41710943957317,5.840762556765341,0.2634769748589894,0.024517469858488516,0.9726328658713905,0.0006050099468499371,145860.0,4825.354792714119,0.07872045053700429,0.75,Oak
648.7713807808368,12.983813414899007,0.20617237320931384,0.019911279231310853,0.9190614865433273,0.0003984545918634839,165379.0,2951.925089240074,0.23849515514855896,0.75,Oak
235.41878840259434,10.012811060153048,0.15468414873496814,0.014630917036007968,0.9315380500044588,0.00021535820708497915,40574.5,2094.819531083107,0.1161902836521256,1.0175438596491229,Oak
277.57669571333946,10.104309795672338,0.1595969735023658,0.013396177389536457,0.9458092138484512,0.00018050741826924107,44238.0,3450.1445540189743,0.04670149305871944,1.062043795620438,Oak
290.2713079035714,9.68117212735056,0.27335622693646777,0.07036420671446997,0.9665558467151999,0.004952609991837286,169260.5,3236.0154896974564,0.2031160770016636,0.75,Oak
301.418055672605,11.406893837273795,0.11563996168465449,0.012470706624817522,0.9166065769897426,0.00015632595807764558,46989.5,5416.635219573975,0.02012572385319135,0.7535885167464115,Oak
119.86756615521378,6.489783223446815,0.2028822307374995,0.021235835376517104,0.9656956967525986,0.00045358956140186186,25969.5,3095.024716258049,0.03406788785692798,0.5134529147982063,Oak
147.0884641082102,7.737780241514963,0.16965213514071478,0.014722321488402888,0.9635976707479441,0.00021829634174984976,119791.0,3150.5667865276337,0.15165497916372428,0.9078014184397163,Oak
170.14519265375566,7.761712479524951,0.2041232517404542,0.018490496581802587,0.9544748441988878,0.0003438765152836751,125874.0,3947.0907306671143,0.10152936695688153,0.65625,Oak
117.50168502143052,6.596810228152022,0.21222547490079754,0.018596273659075666,0.9705608034792694,0.00034806533249698095,54173.5,5211.4249794483185,0.025065927458376644,0.8170212765957446,Oak
459.4919748236187,11.10577336620021,0.25644652760537734,0.02377921981225421,0.8518086468566766,0.0005695026471319908,26850.0,5396.829089641571,0.011584487480380014,1.0878186968838528,Oak
202.85227676453079,7.3442053554333055,0.23924612756745284,0.022040559443688892,0.9564286860486144,0.0004895824239119431,15380.5,2119.706832766533,0.04301587075357753,0.719047619047619,Oak
309.22005602359985,9.211780602834263,0.23515223467739033,0.018743098777887008,0.9214694283084632,0.0003541403415925177,45080.5,3360.8480907678604,0.05015345108467413,0.7924050632911392,Oak
200.40657723482482,7.12134404924679,0.26561865722529376,0.021900808765066972,0.9289376972062229,0.00048291294358571824,80610.5,4448.602484345436,0.05118636378068208,0.75,Oak
361.2837531729591,9.801439530989656,0.21356078468244033,0.020504754557012977,0.9619082711781466,0.0004229394459303918,102748.0,9704.679268836975,0.013709476367224475,0.75,Oak
419.2373029710325,12.887786552074905,0.16396793374114224,0.016138582674541026,0.8163028979915223,0.00026163939599676536,35780.5,4164.131484746933,0.02593029161259957,0.9269102990033222,Oak
270.1908763998407,9.943319263917726,0.15761695689871005,0.014975304091080294,0.9184053456679149,0.00022547404344811173,86213.5,8397.8882958889,0.015361900693175548,0.75,Oak
713.0540572016403,16.844396703063694,0.13225213121807672,0.01154794416195654,0.8692227429711956,0.00013401047511365724,84434.5,8202.113692998886,0.015771689922689014,0.8571428571428571,Oak
145.43760105029284,8.008951027880464,0.1587259341178424,0.016088686436698786,0.9471486642241876,0.0002602024636782649,65883.5,5694.846336245537,0.025528335954846992,0.9253012048192771,Oak
562.0422740404014,12.578942823837442,0.18314880627030314,0.019441325967787852,0.8027850470377433,0.000380052166329157,110528.5,7626.217164635658,0.023881731097508373,0.9253012048192771,Oak
188.27735140515182,7.539678690631611,0.2183342615166496,0.022945997094447307,0.9719677400321092,0.0005296452253316759,186270.0,3086.729131937027,0.24567204281260038,0.75,Oak
134.01670834686956,7.155183089431098,0.17915341481074043,0.015605697405003295,0.9696531571564727,0.00024473033300940897,45613.0,3296.296794772148,0.05275284479565808,1.2671232876712328,Oak
320.3430924857881,8.935695570924008,0.21722343580135026,0.02191179835979185,0.8725256017269427,0.0004827116495405943,46568.5,3768.636974334717,0.04120344264598363,0.577639751552795,Oak
505.6277350532913,12.55120764897735,0.20066787983398415,0.01819051636927416,0.8772505643805568,0.0003329350558177364,103836.0,5302.589415431023,0.04640682031553007,0.8366013071895425,Oak
237.80822281313823,8.739148904988568,0.22378500951488062,0.018107528035299813,0.9357529984445438,0.00032997927925286085,41837.5,2180.9372828006744,0.11053230732733153,0.7058823529411765,Oak
230.5081446771932,8.939679801852712,0.15917715785629544,0.013637354735305243,0.9531041956997277,0.00018691492562405204,48997.0,2700.2581304311752,0.0844439984239006,1.0166666666666666,Oak
244.17614673555914,9.101664633902189,0.1901567367125912,0.01611424863697246,0.9620383559884225,0.0002614167170104173,45539.0,2240.6702548265457,0.1139823104221008,0.8244047619047619,Oak
372.84121581150805,11.23428864208261,0.20232875872632336,0.016094311137220912,0.9302100822534821,0.0002607976586282667,74962.0,5864.416962504387,0.027390587442434555,0.9672544080604534,Oak
208.02730880333337,8.206922755807472,0.20343423497972724,0.021211776757727886,0.9427944502915893,0.0004525836068934578,41895.5,4429.964961886406,0.02682728106843949,1.008595988538682,Oak
640.6578631496585,14.259634787457697,0.20824211652382169,0.01909871884421249,0.8274465094454118,0.00036689615882819725,115122.5,5337.223974585533,0.05078544003781346,0.69140625,Oak
120.4281304370206,6.244178009175058,0.2179583050332268,0.016951786510505423,0.9777370390094787,0.0002889545621106012,54257.5,3504.1617988348007,0.05552663323373327,0.9907407407407407,Oak
240.41004939827778,9.89428407102232,0.1493549821186349,0.015256214809916499,0.9305884703910764,0.00023400184114536092,19176.0,2042.5768896341324,0.057757855162796516,1.3085106382978724,Oak
625.9508879821688,14.347561166641984,0.1427859735023346,0.013643744877603194,0.8718776484623899,0.00018702819756907378,12583.0,2477.2774636745453,0.025765866782591507,0.9515151515151515,Oak
198.76471693122016,8.907455048143627,0.15911659580207596,0.013596043943324577,0.9592354010038756,0.00018584083727624196,65157.0,6271.907297253609,0.020814773189081995,1.0463215258855585,Oak
118.97633967358996,6.476255098678456,0.20618825410110447,0.021174683902756973,0.9446963234013357,0.0004508644766345806,45453.5,6309.228147268295,0.014349102238553178,0.9943342776203966,Oak
460.5972492304686,11.820244415445432,0.20707137600987,0.02106831136078678,0.8231497489185632,0.0004462107569728962,9817.0,2473.7282544374466,0.02015972836065943,0.7584269662921348,Oak
179.16473868511372,8.347528841259564,0.1692007474971714,0.015630246911457448,0.9448241579663974,0.00024556165528998074,47981.0,3886.1344488859177,0.0399248704364833,1.3150684931506849,Oak
465.451805587222,12.906152430073952,0.2080889539400825,0.019305282048438677,0.8694372863123782,0.0003756309531972709,49092.5,7803.163340210915,0.010131730215159986,0.8421052631578947,Oak
562.862292855112,14.641049765659968,0.13103707262165834,0.013184598736428028,0.8461905414837216,0.00017454259140028196,12765.5,1591.2316589355469,0.06335499664227442,0.8652849740932642,Oak
261.2026614671738,10.385011116605034,0.14933258743177394,0.015896582412806427,0.9066715601945633,0.00025394780309126257,27244.5,3666.720235347748,0.025464382867800058,0.5367088607594936,Oak
306.5238011168909,10.799988669401356,0.14664960065621513,0.01577769015103102,0.9051211379187203,0.0002503412320404337,57735.0,2916.757691025734,0.08528022367466685,0.987220447284345,Oak
194.76702678888623,8.574568667473532,0.16886036185227307,0.014143305095624784,0.9572855349207062,0.00020128695498881823,87169.0,4024.6441143751144,0.06762650782293465,1.0666666666666667,Oak
639.7388245043868,14.066464513860808,0.19022818284765794,0.01869094907226841,0.8372963073275441,0.00035158778454609903,16056.0,3688.2177085876465,0.014832492111828835,1.3473684210526315,Oak
689.5639742320313,13.302327812016152,0.24162254356989707,0.020299971316357447,0.8214566111392678,0.00041503143249725194,35947.0,4140.065467596054,0.026354701289633645,1.4328358208955223,Oak
488.1112595497902,12.39592522407308,0.20598903424931503,0.01505817377372778,0.9124646047883962,0.00022814229110565485,52765.0,3228.6399416923523,0.06360870826256795,0.6265664160401002,Oak
495.25535484957237,13.514138177153514,0.1432768431407996,0.012223312543330868,0.9001657174732214,0.00015015621026592498,30367.5,3670.543610215187,0.028324230989630488,0.8282828282828283,Oak
398.1750854443102,10.879084917798265,0.2838600896145413,0.025889055288211407,0.8496768718149535,0.0006745572510391267,43419.5,3826.710131049156,0.037260059983252596,0.9435736677115988,Oak
54.75972086761207,4.34044866874457,0.2930666323789473,0.023961519687030364,0.9805625969827622,0.0005782414448449346,60798.0,3289.7181482315063,0.07059627329454374,0.9908256880733946,Oak
433.6151083850268,11.928643494130572,0.2485667654244135,0.024781415704719034,0.9077578220626888,0.0006181873320984283,112725.5,5323.307233095169,0.04998836936761019,0.75,Oak
327.81084174889577,11.634414800541407,0.12660642651876153,0.014005214753661595,0.881246149085312,0.00019654688431859816,11868.5,2467.5789779424667,0.024494217773190222,0.5803571428571429,TazeYaprak
381.4800586590148,12.13164471973925,0.12636101791852727,0.01303542324014487,0.9049860912681607,0.00017022637765087798,13490.0,1242.3128306865692,0.10983983513240878,0.5401785714285714,TazeYaprak
380.19072370014214,12.636886276297247,0.11299552987840936,0.014930934889685056,0.876660224989193,0.00022331712466719286,4340.5,775.0508577823639,0.0908007053267483,1.875,TazeYaprak
328.01503142569106,11.215561198841511,0.12372127137518071,0.013073458517033737,0.9268745002125263,0.00017120223529937026,6460.0,678.2985508441925,0.17644144407857065,0.8582677165354331,TazeYaprak
306.5229900076332,11.267335431252604,0.11626668116967324,0.013556771247236567,0.9108261785403444,0.00018421669052902257,7511.0,1083.0579969882965,0.0804644781792911,0.9112903225806451,TazeYaprak
316.48925623307576,11.75035585731914,0.11464582933281171,0.01367239953563023,0.8910785045876985,0.00018734264220717243,11550.5,1800.8540216684341,0.04475624353446313,0.6359223300970874,TazeYaprak
387.0260447338974,13.000148079377041,0.10899674080316171,0.01383379509948873,0.815279225467019,0.00019177202016048902,14277.0,3185.708045363426,0.017678071207639985,0.8097560975609757,TazeYaprak
286.6751193028802,10.961678345741946,0.12212710306562961,0.01458258185746971,0.8889090593695665,0.00021305364879164998,11935.0,1855.866213440895,0.043545066346709245,0.5,TazeYaprak
252.48334371849947,9.674702804379063,0.14932270690469945,0.01653396954576393,0.9054222031525994,0.00027413117147505664,6171.0,900.4650703668594,0.09563826054064276,0.4875,TazeYaprak
320.2234992678259,10.771915209005265,0.14160327444642298,0.014421363877733576,0.8990419486068972,0.000208650268474626,10562.5,1467.030646443367,0.06167344570122249,0.6492890995260664,TazeYaprak
284.99777672216226,10.19790723309714,0.14577468187892423,0.014625704183073934,0.9186658979338014,0.00021441110558603174,8422.0,1619.273287653923,0.040363126397086065,0.7455357142857143,TazeYaprak
450.41779024905486,15.559788316067287,0.0731864121245697,0.012708476768760813,0.7729728380494,0.0001617051611757251,9204.5,1743.0794174671173,0.038069372350821265,0.6114285714285714,TazeYaprak
367.3129331288129,13.718841500397563,0.08396384391029915,0.011996913866410223,0.8835851368452539,0.00014406129222826005,20736.0,1634.018455505371,0.09759350899740091,0.5446428571428571,TazeYaprak
374.28270509646063,11.495148504000195,0.13974175760671675,0.013834820431626814,0.8978458865904985,0.00019197098657508437,10655.0,2341.5617339611053,0.02442036178453143,0.6771300448430493,TazeYaprak
314.70075516891524,11.205061096321762,0.13919865569591422,0.013934521724560542,0.9119748934220061,0.0001946798523292127,24093.0,2373.0520697832108,0.05376333607324809,0.874439461883408,TazeYaprak
255.098370534375,10.164883489944826,0.1377759936547136,0.014611429001642437,0.9305898538126389,0.00021391396476653878,13747.0,1504.645872592926,0.07630433299760149,0.6238532110091743,TazeYaprak
302.873935502755,10.969452400763066,0.12713390719260595,0.013975744908548039,0.9046783587125862,0.00019566616031283754,9941.5,1794.878408908844,0.038778563232189915,0.5445544554455446,TazeYaprak
269.7596463905845,10.277054178289944,0.1321547951955447,0.01527127241642739,0.9216106375393183,0.0002335820061318315,7241.5,857.6782749891281,0.12370566264635911,1.0,TazeYaprak
309.91632610804845,10.458524331341117,0.13585928359457156,0.014017589951378664,0.9228570862529202,0.000197121745986071,7111.0,967.6610286235809,0.09543200343920256,1.4017094017094016,TazeYaprak
299.62098073792777,11.379995625397584,0.12627222178337724,0.013998696813993286,0.9033630622545787,0.0001962509109906679,7632.5,913.3351272344589,0.11497842486418529,0.45,TazeYaprak
320.5461143370365,11.576720849325726,0.12155129835520864,0.013759196056716518,0.895692805144837,0.00018964009132567568,7724.5,977.4183877706528,0.10160597124349448,0.5930232558139535,TazeYaprak
370.12539050942917,12.005267433418712,0.12347548895954882,0.013135972755060725,0.9203640501172714,0.00017272794349996326,8933.5,933.8792856931686,0.12872118252622494,0.4619289340101523,TazeYaprak
290.6553628927785,11.604924516774611,0.11141629998411309,0.01522093401666158,0.8926389608136447,0.0002318653297037887,4170.5,394.8355669975281,0.33617503214759054,1.2380952380952381,TazeYaprak
323.09803483093515,11.6223333593085,0.12533045476079607,0.01273959550451059,0.9212007213561791,0.0001625914851780515,8222.0,1008.8326013088226,0.10151941807950585,0.48947368421052634,TazeYaprak
274.92477327562466,10.48837410820293,0.1251334475076766,0.01599359743577569,0.9140395819711774,0.00025611082512430703,3492.0,484.61731123924255,0.1868470526537707,2.111111111111111,TazeYaprak
794.6828130790843,17.47290380828592,0.1135627940210196,0.015884069730141323,0.6058569057637964,0.0002527575703371308,8846.5,1568.486490726471,0.04518765255875041,0.8802816901408451,TazeYaprak
295.35515107957036,11.319689323276002,0.12116708262519821,0.01354450423181099,0.927447730641233,0.0001837193574918329,7149.0,976.690465927124,0.09417622205672674,0.4393939393939394,TazeYaprak
329.8661098286725,11.349092550374028,0.12433825002820381,0.013345296744497498,0.9048468845557394,0.00017842176484245462,5956.5,1382.060084939003,0.03918746419951631,0.853448275862069,TazeYaprak
354.801986566306,12.28484203579939,0.11102461638709386,0.01269583080039197,0.8947502189235959,0.00016143988640360575,19702.0,3771.3202998638153,0.017407377241652637,0.90625,TazeYaprak
420.6216650046933,14.084147552952563,0.08673675421726325,0.011413237876759547,0.8937428903065371,0.00013043386809148154,6510.0,742.0386645793915,0.148572277995233,1.1261261261261262,TazeYaprak
290.8587043113018,11.897708751074553,0.1033265037786385,0.014724556985857312,0.8712785318607386,0.00021705899341967864,14316.5,1927.7900936603546,0.048409125041284744,0.6513761467889908,TazeYaprak
313.61423686470505,11.967012300419205,0.10676081618397196,0.013858807689316719,0.9202967860487651,0.00019224465943505398,5161.5,1063.5016474723816,0.05734683601867363,1.7431192660550459,TazeYaprak
292.28099971489064,11.218263703560057,0.12928865255970315,0.01477718140205595,0.8963757692123276,0.00021874671086470388,10940.5,1447.9768252372742,0.06557281262988308,0.6214689265536724,TazeYaprak
315.43218269808676,12.15432846923275,0.11051510332015754,0.01484007185574392,0.8421896777498058,0.0002205155197486733,6771.0,1001.8864241838455,0.08476678156561483,0.5642857142857143,TazeYaprak
312.8649651647741,11.886043561461172,0.11954823226617449,0.013727666690837009,0.9020190611377957,0.0001887001077174283,13818.0,1091.9452984333038,0.14563081733974081,0.695,TazeYaprak
387.60358421664785,12.593651766683877,0.1322301457561778,0.01356691491208092,0.8811989237125437,0.00018438102752983506,11695.0,1481.0823818445206,0.0669964295639928,0.5580357142857143,TazeYaprak
304.264926302353,11.097722333620801,0.14081422987125858,0.013727301807173693,0.9214589097482593,0.00018888840750476727,20893.0,1426.9646319150925,0.12893898591635794,0.65625,TazeYaprak
304.5906722471661,10.067083862392598,0.17042015562646287,0.01497295502838895,0.9327380295707084,0.00022533279227404418,14196.5,1702.0844691991806,0.06157847549717064,0.4375,TazeYaprak
452.33166407017416,14.039899087879451,0.10324980088534033,0.012750533564975096,0.8618152095175693,0.0001627429906668656,34032.0,3210.889720439911,0.04148074588507588,1.0,TazeYaprak
542.5492344624208,15.386720287351956,0.10868600708558276,0.01192680737744944,0.8677603884782484,0.0001424792003176864,11342.0,1542.3027250766754,0.05991840651335433,2.2323232323232323,TazeYaprak
481.711813722364,14.3571126712155,0.10123734376986554,0.011735297209214459,0.8751990297959283,0.00013790475772549829,21960.5,2112.843916773796,0.06181832838762439,0.8082191780821918,TazeYaprak
561.2218633026953,16.014775754232573,0.09150906976941889,0.010737973987410707,0.8693309566076132,0.00011540633452192363,6803.5,738.3401809930801,0.15683003731524328,0.5584415584415584,TazeYaprak
477.5039231159866,14.246740076753282,0.11202603108921755,0.011644157375618625,0.9032275711549322,0.00013579134524304603,13874.5,1076.933106660843,0.15033141632575478,1.4088050314465408,TazeYaprak
519.819844360025,14.550598035999675,0.1065633368120572,0.011580378564784468,0.8737899503244109,0.00013427084201400992,7335.5,1148.2955847978592,0.06990885603273646,0.46411483253588515,TazeYaprak
446.2946461787304,14.099546371693275,0.10557488713522387,0.011739212603570005,0.8896626488002759,0.0001380358153424379,29667.5,2738.9515615701675,0.04969607751278606,1.0,TazeYaprak
287.59965387400086,11.353205848916456,0.11392037498478477,0.013639830164743945,0.9101101193827075,0.00018633212728673372,30359.0,2075.062171936035,0.08860028104332943,1.0,TazeYaprak
370.5857781317718,12.886199181708882,0.10940373480943082,0.012145289206613376,0.9196088808202592,0.00014763567379724014,7628.5,1211.8691798448563,0.06527359511146151,0.6375838926174496,TazeYaprak
380.8120586121504,13.011814458473271,0.10812300919163984,0.011628839346067597,0.921939017689531,0.0001354462927517842,6240.5,471.11983811855316,0.3533185727243738,1.1363636363636365,TazeYaprak
352.7030331629637,12.158840468913764,0.1291526660043091,0.013938200734310738,0.9374296468793141,0.00019450847352127493,13163.0,1129.9453002214432,0.1295537251428847,0.5580357142857143,TazeYaprak
345.6955940707759,10.208181221687186,0.21636270309812136,0.021652134063355432,0.8999515954689171,0.00047050462633103907,16804.0,832.7005718946457,0.30454032791482744,0.5178571428571429,TazeYaprak
531.1252462902792,15.489988370900557,0.09610411493929101,0.01212281092550943,0.8247777866991629,0.00014710910440828684,12473.0,1604.7047472000122,0.060868207377473935,1.7099236641221374,TazeYaprak
346.31356851457554,11.354920589237668,0.16196836249993693,0.014050359606571316,0.9302241897297092,0.0001981830901204285,7200.0,866.4650712013245,0.1205147599562693,0.4298642533936652,TazeYaprak
523.003716886622,15.470758968970628,0.08604052212428481,0.0112687059616483,0.8521398985215819,0.00012710497320209368,12135.0,2239.027683019638,0.03041800439832739,0.47767857142857145,TazeYaprak
377.1484155506927,11.826276072564587,0.1443768934634247,0.015756965272306522,0.919042657014646,0.0002491646700504471,23561.0,1624.4793511629105,0.11219543650007913,1.0228310502283104,TazeYaprak
510.1188404770076,14.729033706440333,0.10116768273633264,0.011304660616285654,0.8923244578911841,0.00012793735689229117,10057.0,1042.121924996376,0.11637005728121623,0.44642857142857145,TazeYaprak
335.9939311245613,12.229926110232832,0.10823546777610764,0.012892902466384118,0.911533751635874,0.00016635638203301863,13490.0,1944.0327347517014,0.04485539305068702,0.6651785714285714,TazeYaprak
608.4959578235726,16.720926394273157,0.08136323286262404,0.010259201022772398,0.8568324436605059,0.00010542305516818759,9484.0,1236.655974984169,0.07792980849661052,0.49504950495049505,TazeYaprak
593.7327375760947,16.37034398314065,0.09681466568718507,0.011100258188730592,0.8324124746029015,0.0001234134809779619,16259.5,3380.1415910720825,0.01788328363500273,1.3493975903614457,TazeYaprak
319.7030750866192,11.483601387377723,0.14247832028595742,0.01363126815051903,0.9364788389425487,0.00018642745382010413,8713.5,429.46298348903656,0.5936780962012406,1.404040404040404,TazeYaprak
535.4708155479797,14.933495325918347,0.11221821548243638,0.012309541505793326,0.8586464773171636,0.0001517041131944824,15033.5,2120.015489578247,0.042033146150740726,0.5982142857142857,TazeYaprak
470.0804210382986,13.993316476195385,0.105120216281768,0.012071676490756855,0.8654098023402412,0.00014604403530787334,11554.0,1464.7392348051071,0.06767396113017617,0.5133928571428571,TazeYaprak
337.85154194216045,10.895859509435184,0.14983373289597052,0.014101614250636232,0.9196740227941655,0.0001992721921010597,8113.5,885.5950139760971,0.13000132508828552,0.34375,TazeYaprak
430.11304078373695,15.109938433273793,0.0796132633298119,0.011661914031164247,0.8632042367922967,0.00013607306523385563,14535.0,2051.4297033548355,0.043402187727412556,0.48660714285714285,TazeYaprak
85.26862104952781,5.920032565415423,0.202427317439004,0.017210025042215527,0.9783336827068885,0.00029753826133033343,637145.5,14857.927631855011,0.0362687014656603,0.38072417465388714,TazeYaprak
634.6901437936802,16.92062990336386,0.09954544796488346,0.011324665828684926,0.8192157575252905,0.0001283734550115564,11674.5,1740.7951475381851,0.04841197704333778,0.48214285714285715,TazeYaprak
521.3119423795025,14.266104787952308,0.14432268090389627,0.013699828029268273,0.9046359639851649,0.00018812129987474043,21435.0,1724.6458716392517,0.09055938938811561,0.7767857142857143,TazeYaprak
261.7506813042829,10.451145768099767,0.14417997375948383,0.013879320129689995,0.934436574386088,0.00019321456766721213,2920.0,364.8771973848343,0.2756127272737393,1.8615384615384616,TazeYaprak
280.52257777332846,10.281052456098898,0.15309986447980892,0.013621624080961105,0.9440827600333315,0.0001860238689549941,6397.5,769.6538906097412,0.13571542792908392,1.5046728971962617,TazeYaprak
415.0580360285074,13.022191034336238,0.11549112508130227,0.012972923608237213,0.8788554538635092,0.00016856100966686655,34528.0,2537.7139726877213,0.06737456049856938,1.0,TazeYaprak
451.4829467679323,14.044067057740317,0.10121899885189219,0.01255505588755158,0.8691507463760326,0.0001578739111568667,3541.5,336.2081503868103,0.3937137980437964,1.2876712328767124,TazeYaprak
317.2550802357761,12.211508765905169,0.1100697024457419,0.01228352982356723,0.9102719874143417,0.00015117605527754848,18412.5,2726.657187819481,0.031121573413027317,0.8660714285714286,TazeYaprak
16.394986426777965,1.0770675401792775,0.7771619769443645,0.10556553021969464,0.9964056499291674,0.011164876689642573,57381.0,1225.4844018220901,0.48013393357327433,1.682170542635659,TazeYaprak
21.71783768192229,1.0425782470911356,0.8008171257148016,0.11215400038844847,0.9952574724140605,0.012601773541160186,48592.5,1130.780867934227,0.47755368823672295,0.9411764705882353,TazeYaprak
23.513143176781185,1.276432190420268,0.7630912325498724,0.10247546912560622,0.9957656882393537,0.010517240697401274,64312.0,1244.3960953950882,0.5218967594049684,1.4493243243243243,TazeYaprak
13.978922362632414,1.0037174536383136,0.7780638713948022,0.11551414146931958,0.9973377490516848,0.013364257867280713,57553.5,1175.5260343551636,0.5233799721788509,0.5534441805225653,TazeYaprak
17.24445854916589,1.047706818721957,0.7891568645605233,0.11626647105019546,0.9958988770320852,0.013539912463393467,49904.5,1259.0407551527023,0.39561249130485565,1.625,TazeYaprak
17.823950386345004,1.0693824148910758,0.7848789026432852,0.10714507560563723,0.9959828997328277,0.011504505405869187,54728.5,1187.1929932832718,0.48795610908975234,2.742857142857143,TazeYaprak
12.497040415686712,0.9246969879738677,0.7946443223752374,0.11377208096675732,0.9969341012373678,0.012966657181117138,48197.5,1072.3300775289536,0.5267170791442352,0.5152284263959391,TazeYaprak
16.898753028286265,1.5452771799137954,0.6615662951414896,0.07703064407490337,0.9963262606903636,0.005951068305636753,101323.0,1604.8468836545944,0.49436839392043586,0.579047619047619,TazeYaprak
15.592746290503328,1.0114006076005657,0.8084689953012105,0.17862806956461064,0.9975337498122511,0.03193820426317403,46624.0,963.9452979564667,0.6305428649007392,0.6231884057971014,TazeYaprak
12.874823973865338,0.8209882372673659,0.8305599322930202,0.16407029456334815,0.9977141321212105,0.026947901425596263,42103.5,1131.3940031528473,0.413333226938192,3.3333333333333335,TazeYaprak
15.746688645887003,1.1381005427110207,0.7798005124897227,0.15666407885753825,0.9976637944989899,0.02457459129838976,62005.5,1174.6732221841812,0.5646845956481131,1.2269736842105263,TazeYaprak
18.749747800877607,0.9900549673227519,0.8413238725831849,0.42596533359412847,0.9970441721718986,0.18145189473310766,41244.0,1017.2590107917786,0.5008498536834557,1.237037037037037,TazeYaprak
51.15786273477873,2.710311815863915,0.5971058697611075,0.06599089913324424,0.9960391271959401,0.004386116382853318,112343.5,1434.9473865032196,0.6856237588939417,1.087179487179487,TazeYaprak
26.986098514447498,0.9231648091279571,0.8211724457887587,0.10018020965925564,0.9963970721414037,0.010074722651497899,46093.5,1341.5950150489807,0.3218152932499547,0.21147540983606558,TazeYaprak
28.349054071538113,0.9749111252753525,0.8154255355565807,0.09956520795548149,0.9955182270920078,0.009953068477142269,38106.0,1256.0142804384232,0.30353870205720906,0.17677642980935876,TazeYaprak
32.42834278429498,1.2671192293324742,0.7763584936662139,0.11948309364432065,0.9961133281476077,0.014313204514579243,65340.5,1453.442774772644,0.38868380256112944,0.3562091503267974,TazeYaprak
25.76067301561286,1.3472740569490096,0.7334655887209405,0.11500669560280347,0.9974424868249597,0.013256329910060753,95761.0,1478.1605917215347,0.550751003746761,0.6793893129770993,TazeYaprak
22.31078946763025,1.3640295549489878,0.7070852015920618,0.10364473591143353,0.9980717168358606,0.01076471422949278,121966.5,1543.172782421112,0.6436078249453159,0.9281045751633987,TazeYaprak
21.245445924819343,1.2480426911436062,0.7282685062534302,0.08709318739519509,0.9981604021338237,0.00761204475095093,102340.5,1330.035702586174,0.7269939562049419,1.0077720207253886,TazeYaprak
25.422116430422975,1.0675101699828755,0.7950710220599948,0.11982849828973309,0.9937622242058741,0.01439760323569406,44733.0,1429.3523738384247,0.27514351072410903,0.20219435736677116,TazeYaprak
23.6342430772843,1.0330410551216698,0.7968264123705617,0.12061307859328585,0.9939676654525652,0.014590305085202664,44216.5,1381.4284943342209,0.2911638189103621,0.1640378548895899,TazeYaprak
23.46332259296669,1.1660677719738466,0.7673261102106833,0.10866369639672038,0.9943610368592657,0.011843418811560872,51691.5,1422.1635578870773,0.3211662545993668,0.26094003241491087,TazeYaprak
21.07346284476872,1.2260221916339444,0.7327051095811584,0.08963367442725487,0.9980700494108847,0.00806159829703703,97692.0,1344.0773315429688,0.6795483333075067,1.0779569892473118,TazeYaprak
21.33937692521152,1.3928624685608497,0.7134248546465713,0.08307597344808018,0.9964308036673101,0.006931837028722034,75613.5,1391.976825594902,0.4903940534609197,0.6708595387840671,TazeYaprak
19.10490711949332,1.4680334974647211,0.6857892848497668,0.08347484850825101,0.9973792132851076,0.006994910539896601,104086.0,1372.9301425218582,0.6939134461615168,1.1326530612244898,TazeYaprak
19.69490540034745,1.5304442169039234,0.6730066775281434,0.07848365971543751,0.997621063911293,0.006184983923515524,114044.0,1433.5331723690033,0.6973757014571323,1.2131578947368422,TazeYaprak
24.484628671873427,1.7570408841430396,0.6583253233540308,0.09527574716719345,0.998314095304199,0.009086131417101302,130966.0,1473.2732897996902,0.758231454802188,0.9596412556053812,TazeYaprak
33.83894109583955,2.1216228851081347,0.6075716496007415,0.09840640432380088,0.997846061691207,0.009693358306732472,161909.5,1736.285482764244,0.6749007759658228,0.7834862385321101,TazeYaprak
26.987448950996267,1.3776780352362044,0.7279309044144171,0.08850000855217949,0.9979771632885185,0.007866439230840957,96902.0,1591.4499156475067,0.4807913589408069,0.4529505582137161,TazeYaprak
27.480434219889023,1.0011816010303956,0.8376940379233275,0.4017281112782145,0.9966337888717202,0.1613890229768815,53419.0,1385.7199048995972,0.3495865434760131,0.2649434571890145,TazeYaprak
27.059308218248102,0.9288582243479795,0.8498432645212303,0.4119330046470334,0.9964476026951637,0.16969681531079617,51556.0,1398.2396762371063,0.3313796509500529,0.203125,TazeYaprak
31.19534460827795,1.1067721959049164,0.8094150019323941,0.1410832563894823,0.9958337211391647,0.019941640510909894,48929.0,1394.9259679317474,0.3159903977119632,0.18009478672985782,TazeYaprak
29.763829236495937,1.1795825028579683,0.7836995049218606,0.13002368659128552,0.9966049339221033,0.01694231207139254,60756.0,1468.5483320951462,0.35401572122724734,0.24761904761904763,TazeYaprak
23.405936743375342,1.2537262046409783,0.7369591378054652,0.10278317346080479,0.9980302395509278,0.010596375070128247,99260.0,1591.8763196468353,0.49222706568573416,0.49755301794453505,TazeYaprak
26.976116061034013,1.9710927660384852,0.627558490887477,0.21117545937546894,0.998116877235979,0.04460131593349669,153826.5,1723.2215535640717,0.6509667205940933,0.7844827586206896,TazeYaprak
23.398780878261935,1.875211353026761,0.6305882143507066,0.19603820340056302,0.9984290776864638,0.038435482851573846,154586.5,1585.5991938114166,0.7726709701672895,0.9570552147239264,TazeYaprak
27.969768315342915,2.2263128596881288,0.5722522724998345,0.05738282261700234,0.9974273214707882,0.0033194362983685016,152166.5,1835.0550332069397,0.5678462067162527,0.7003311258278145,TazeYaprak
27.672530233606025,1.3973425237280683,0.7274484818839875,0.11014055559871827,0.9972381175639933,0.01216531754266353,86098.5,1566.4377204179764,0.4409396816186873,0.4046875,TazeYaprak
26.77990128931893,1.128431885762347,0.7841369227130609,0.12785306209743447,0.9959208471740402,0.016387372024259456,49272.5,1436.021420955658,0.30025664366444216,0.21939586645468998,TazeYaprak
25.8622914644279,1.1066611184518451,0.7781462666175405,0.11648149901452048,0.9962330323923175,0.013603446632429178,51071.0,1408.038665652275,0.3237092158550138,0.1892744479495268,TazeYaprak
26.906117169469862,1.1011797509448191,0.7888655477799313,0.13685269771156963,0.9961911375509886,0.018762547371770383,50837.5,1381.7371501922607,0.33461328575671195,0.22241086587436332,TazeYaprak
24.59977209574804,1.4383744966099838,0.7067830192826778,0.1032913722823186,0.9977980876865121,0.010701585100834942,93586.0,1556.9057568311691,0.48517241468214367,0.5102739726027398,TazeYaprak
29.929917261140865,2.3912541720299116,0.5406027584647313,0.054112081281638046,0.9977504799111955,0.002953861172935749,166053.0,1702.1849765777588,0.7201833621237085,0.7789473684210526,TazeYaprak
36.2009218122578,2.7766386432088304,0.541518557879124,0.232284628133334,0.9968899182651408,0.05395942881955592,185805.0,1715.2976769208908,0.7935755189792669,0.8828996282527881,TazeYaprak
25.549366711327192,2.110540830848289,0.6227789047185576,0.0785192277922847,0.9969642961392966,0.006180495622619447,126387.5,1524.5453662872314,0.6833343977160108,1.17359413202934,TazeYaprak
33.000327542143424,2.421273825562727,0.5874903211549307,0.07165314519145059,0.9962776480836342,0.005152880030734878,139403.5,1818.074363708496,0.5299809457511085,0.7722132471728594,TazeYaprak
25.71414728743486,1.5548273263109467,0.7038883776591622,0.09150197787726598,0.9962928222796663,0.008406570893544203,87101.0,1611.5331757068634,0.42145819625136566,0.525,TazeYaprak
24.199886214418704,1.191967809889327,0.7741053985744304,0.10609633490847031,0.9951609124009926,0.011297519659727702,55613.0,1446.9158629179,0.3338102219308112,0.33793103448275863,TazeYaprak
23.372717809905517,1.0644973237101598,0.8030252170740931,0.1289887538342212,0.9950517503259453,0.01667866582283488,48712.0,1460.1219265460968,0.28712273319545584,0.20352564102564102,TazeYaprak
21.351706011592196,0.9999432624826349,0.8135534550256591,0.14236145737820882,0.9951122662029007,0.02031533210420482,44067.0,1398.641697049141,0.28308079496130734,0.1650943396226415,TazeYaprak
23.062718576399835,1.1623836049865968,0.7934379853730839,0.14294178126346985,0.9953327314292361,0.020476051979918093,50814.5,1427.6193988323212,0.3133088333077242,0.2539432176656151,TazeYaprak
22.592545323734903,1.2711288293069818,0.7681998680823956,0.12580948221140534,0.9959071812751991,0.015864874474614623,59778.5,1542.6387329101562,0.31566498760402417,0.37846655791190864,TazeYaprak
18.48864640856585,1.3174191563228732,0.7231932830395013,0.10398004677800805,0.9974964585165689,0.010849175071977003,89707.5,1504.8052520751953,0.49782651165159464,0.6256983240223464,TazeYaprak
30.242168870671904,2.1317968834230108,0.6132643639334794,0.062253680159763146,0.9973107046188853,0.0039018572569805322,123488.5,1468.947389960289,0.7191573038346335,1.154040404040404,TazeYaprak
25.853392745966424,1.9403284805023149,0.6290284089398144,0.06850582981673597,0.9975898491203231,0.004728262906209534,114018.0,1465.7585690021515,0.666896440095621,1.231958762886598,TazeYaprak
33.34394257438183,2.1389220283499335,0.6117905089735216,0.06815579119151033,0.9967687989124011,0.0046902125632569324,114557.5,1719.6824505329132,0.4867846476456727,0.7068676716917923,TazeYaprak
24.155218746392194,1.3381018823108175,0.735506418835993,0.09957615586955312,0.9964848373323333,0.009959986928002327,77685.5,1583.6681699752808,0.3892435756524458,0.4065934065934066,TazeYaprak
22.34662449313764,1.1213393961857905,0.7827178238633313,0.12778855167526465,0.9952463817665049,0.016372055482693333,54968.5,1458.2813059091568,0.32481878160166794,0.22705314009661837,TazeYaprak
22.27092085016481,1.079362915269929,0.7983640959666685,0.14176900029109812,0.9942743651929604,0.020141789798804995,46715.5,1432.2569209337234,0.28617323074042794,0.16586921850079744,TazeYaprak
21.068633279125773,1.2253452781221337,0.7618601149037243,0.12363482590931565,0.9954187669467808,0.015315713082227633,61267.0,1543.685415506363,0.32308654873990805,0.3111111111111111,TazeYaprak
16.14256962243384,1.4064613419664016,0.6902160327569216,0.09244306831694164,0.9975166144026038,0.008574344889670954,104490.0,1623.7585698366165,0.4980141480832873,0.6563636363636364,TazeYaprak
15.215916629043425,1.5137588022213029,0.6475769337417124,0.07541288370283991,0.9976478888051785,0.005715172723670977,138875.5,1588.7463768720627,0.6913951890734022,1.1267605633802817,TazeYaprak
49.22051555167708,2.9710689012535125,0.5780167143074305,0.07658997993915528,0.9957468507398567,0.005901301482351881,128087.0,1684.6702612638474,0.5671332355667433,0.8805970149253731,TazeYaprak
48.18605281746217,2.678250117939155,0.5892462359255785,0.07461072116817064,0.9961731681911347,0.005607861774994217,123688.0,1583.2144124507904,0.6200946176483666,0.8918367346938776,TazeYaprak
43.806743735896205,2.5618697414858733,0.6183985686539414,0.07019220157888799,0.9961083083253592,0.004964222919298428,111732.0,1629.1067703962326,0.5290397927806717,0.7928730512249443,TazeYaprak
37.67310948948439,2.0050117567428893,0.6637788907856774,0.06784963704607819,0.9963072353597837,0.0046554790550784085,89309.0,1724.052946448326,0.3775755749950014,0.4375,TazeYaprak
20.488940405838402,1.2398620675062562,0.7573298277585709,0.1260411521883634,0.9981765713112367,0.015901230537118456,88098.5,1337.2661491632462,0.6190741578355909,1.5737704918032787,TazeYaprak
20.412660325292876,1.2639592631831789,0.7359338028479984,0.11816869143535892,0.9982891760089752,0.014001308331281121,76663.5,1225.3838980197906,0.6415849504161504,1.94331983805668,TazeYaprak
26.53573735128399,1.3886139250788712,0.7537694826007028,0.1202523195184343,0.9969247924934632,0.014479762637649732,66782.5,1278.153450846672,0.5136964246626022,2.2606635071090047,TazeYaprak
42.181946609753545,2.053073298850308,0.6607496632721417,0.0709060168973572,0.9958762511883846,0.005071368373362259,81737.0,1897.0966613292694,0.2853971541951304,0.5202702702702703,TazeYaprak
18.887803547610243,1.0962064933383335,0.7786633479161128,0.12452572525951211,0.9967304199134104,0.0155329824420601,53051.5,1149.761534690857,0.5043034989917708,2.33160621761658,TazeYaprak
27.368776585673032,1.1089820871728182,0.7989453102463409,0.14234176630457215,0.9948619156405423,0.020326793954594878,41325.5,1367.9137749671936,0.2775303829714353,0.1552,TazeYaprak
21.128863304532466,1.2323467310668406,0.7277846915270445,0.0794948881408147,0.9977817319125754,0.0063459135219540806,87429.0,1421.0235085487366,0.5440801100240682,0.6124031007751938,TazeYaprak
20.21828918745845,1.3614573051298913,0.6928584268244111,0.07177671791198398,0.9979451813535789,0.005177981098259949,109640.0,1432.219464302063,0.6716758717275036,0.9901234567901235,TazeYaprak
42.63101829773454,2.275186390697426,0.6191600232896647,0.11788042443016344,0.9971443340845393,0.01390377753890861,138704.5,1616.4864909648895,0.6670467247242208,0.834307992202729,TazeYaprak
32.29233639466508,1.2603021234404794,0.7635122718638442,0.08838697894380987,0.9968815174607049,0.007842977988293025,76090.5,1500.4965974092484,0.42468827609200654,0.41734860883797054,TazeYaprak
29.481166885256975,2.0235837073833056,0.6847755255379808,0.10320228776881883,0.9961425737802075,0.010667946374868911,81834.5,1582.2022207975388,0.41079232204031413,1.1848958333333333,TazeYaprak
43.308469954644366,2.6173822809566483,0.6518369594017972,0.22184493891636486,0.994210973653666,0.049218813926692695,106407.5,2287.848967909813,0.2554626432276726,0.41706161137440756,TazeYaprak
20.961338891995908,1.1943752825538678,0.8001659250474502,0.13678381697000763,0.9941405809350223,0.018728483331704585,43028.5,1390.555472612381,0.2796336512284117,1.8299595141700404,TazeYaprak
30.294522971196372,1.5449324888502858,0.7793337905454395,0.13648512444298072,0.9917168454893526,0.018652109086858774,47108.0,1565.2833936214447,0.24161204147930715,2.4455958549222796,TazeYaprak
32.51089383219431,2.4087945785115723,0.6073193446897976,0.0862658820944458,0.9959866446600542,0.007460220438663956,111678.5,1821.3981782197952,0.4230285127387574,0.667953667953668,TazeYaprak
22.48728336514636,1.4701643000204907,0.759369213798172,0.12969445803228513,0.9961945379161522,0.016841662491696184,54079.5,1284.8742331266403,0.4116435282322035,2.423469387755102,TazeYaprak
20.87273009091814,1.668799793634419,0.6984091447185617,0.1082853613902749,0.9974875311052736,0.011740265188268479,82863.0,1441.5920497179031,0.501055414474038,1.3070422535211268,TazeYaprak
29.19929485789971,2.230137744634952,0.5948944235298766,0.06737580154891405,0.9972825056655507,0.0045501752974628365,131014.0,1895.2976732254028,0.45832411811548585,0.6483333333333333,TazeYaprak
19.393596371429318,1.5261268118671725,0.7213062937174035,0.1136608145905479,0.997076148123731,0.012936381464934851,70729.5,1522.8641258478165,0.38325527388331665,1.3370786516853932,TazeYaprak
23.957555709058116,1.4531947021546534,0.7596704926677654,0.14427601579351168,0.9959842332850368,0.02083360699260071,57020.5,1421.442773938179,0.3546354327167665,2.2429906542056073,TazeYaprak
25.55774677070039,1.7742431171881772,0.7170420047662001,0.24078872836733228,0.9968642212390284,0.057982254614360434,92443.0,1363.3666534423828,0.6249691214280293,1.338235294117647,TazeYaprak
27.256586021313062,2.236923359509665,0.6250377065251616,0.08416285032044726,0.9966925598765067,0.0071041438687213,105609.5,1630.40322971344,0.4992554294657983,0.7423312883435583,TazeYaprak
259.1538787101133,10.419702555709812,0.134706977437161,0.014452128267626941,0.9309693283877222,0.00020933828220098057,11721.5,1466.496595621109,0.0684905947741268,0.5892857142857143,TazeYaprak
7.251261292844637,1.865493385818142,0.43449310787354345,0.04333080073773392,0.9921933470361837,0.001889973738902086,12339316.5,81320.89582192898,0.023447506215837414,1.5,yaprak
6.435140676338451,1.778547164339082,0.44330987686689405,0.0454280787493765,0.9942293339777662,0.0020770202280619523,13745743.0,91002.12221240997,0.020858114300238113,1.5,yaprak
6.680012200641192,1.792435600064341,0.44257043427360016,0.04021797615392382,0.9959805206591414,0.001628219049887555,19453628.5,44984.28813517094,0.12080607589565268,1.5,yaprak
6.983392588837533,1.8326493118624319,0.437659897106205,0.04693091761516106,0.990458706628653,0.002216698997459572,13558875.0,84293.04751610756,0.02398004589403322,1.5,yaprak
6.504416899340884,1.7913522468650933,0.44022086806826466,0.045926197229189634,0.9906595667013897,0.002122990701462759,12215754.0,102452.26809024811,0.014624700733511938,1.5,yaprak
5.972884672559328,1.7377939028170495,0.4470745325652076,0.04641748219313156,0.9947837985930231,0.002168524510751558,23990001.0,19996.0,0.7539696667200192,1.5,yaprak
5.782656773702128,1.6928148836302304,0.45612250515941566,0.043218385434503945,0.9962276734089832,0.0018800017318971126,23990000.0,19996.82842707634,0.7539071657929451,1.5,yaprak
6.484742701421007,1.7849211414875779,0.4412987888858756,0.04755320352142726,0.9922364192187441,0.002275840564228226,13880140.0,81025.29488253593,0.0265682206883912,1.5,yaprak
7.60749811220831,1.8849348530786583,0.4325594169679341,0.044327559142259734,0.9917281037412882,0.0019775876545969255,11339084.5,38822.73892879486,0.0945399814739975,1.5,yaprak
6.86420829101016,1.8266433615074957,0.4374077140129151,0.046506065889826004,0.9918874536637515,0.0021766599515752163,10474514.0,80158.92317438126,0.020485190018042672,1.5,yaprak
7.186761203204883,1.8845810384614343,0.42783801128765003,0.04362614716508282,0.9923602206744218,0.0019154106770099299,13925200.5,93149.3378354311,0.020167486599074552,1.5,yaprak
6.436006177995713,1.7765126231532107,0.4453898441451636,0.04217060145095849,0.9948534985150406,0.001790064470219264,14066318.0,85999.43943619728,0.023900063484548744,1.5,yaprak
6.290705846422226,1.7521624125192832,0.4479950476741267,0.048887445929147635,0.9914877564607909,0.00240568104122411,13369055.5,103443.08521091938,0.015700289491258124,1.5,yaprak
6.48743620957784,1.7890404202966976,0.4398260891666451,0.04603128202057456,0.9934565410857769,0.002132340975230523,13422077.0,90113.08267378807,0.020770832168218626,1.5,yaprak
6.545338568120225,1.7889343059930953,0.4413652631962767,0.04742910237040247,0.9915911078957272,0.002264040766001354,12557904.5,96097.7868719101,0.017088355409448565,1.5,yaprak
6.704381363046838,1.8352318205909277,0.43261510874889825,0.04092703696704023,0.9945356488554147,0.0016856369969949197,12638183.5,70742.83561682701,0.03173434896576813,1.5,yaprak
6.189004292109378,1.7781888815174205,0.4400487532465768,0.042550313042358776,0.9947300356821726,0.001822018611392076,12070104.0,69309.29354894161,0.03157460539996379,1.5,yaprak
7.127251673377771,1.8762784222355302,0.42340669458287705,0.04988996223456856,0.9914986329591361,0.0025045929880499005,23990001.0,19996.0,0.7539696667200192,1.5,yaprak
6.017536497947286,1.7605533206800117,0.4413158185516876,0.04452016876873604,0.9933918738714338,0.001994734350255998,12465398.5,79260.76972353458,0.024934430858972234,1.5,yaprak
6.342795813651319,1.787068222044526,0.4394736380423086,0.044588068428718236,0.9927498274327955,0.0020010486709098768,9089040.5,46626.44939184189,0.052536751105172995,1.5,yaprak
6.445673321564264,1.772273674198333,0.44613858908476234,0.04056542803289273,0.9955573958732061,0.0016560847073608304,11379291.0,69806.02861464024,0.029345344062220377,1.5,yaprak
6.4517025231661576,1.8230800615362,0.4319706636149431,0.04687569192909764,0.9902836371087738,0.0022112137686615685,11044839.5,99404.15683174133,0.01404624313101844,1.5,yaprak
6.532272349062909,1.8242924763095376,0.43311279662661895,0.04400117633945319,0.9923313751943171,0.0019485160406269306,12473367.0,123000.17496299744,0.01036053318817864,1.5,yaprak
6.388478371212845,1.812503506563345,0.4336086736916926,0.04883897473921021,0.9892798821915817,0.0024004053683343175,11621496.5,63535.77520298958,0.03617722521381461,1.5,yaprak
6.283209925052895,1.783187371609701,0.4402515886801244,0.04507850769754305,0.9953859008651176,0.002044891675577809,9820794.0,66593.9084392786,0.02782834995070916,1.5,yaprak
6.846029140552988,1.8548936143567765,0.42965516704570855,0.04407651056083643,0.9930439150030216,0.0019550926747671873,9449306.0,49223.066157102585,0.04900861748434105,1.5,yaprak
7.315641691211839,1.854385473742974,0.43599935529052614,0.046907137516903404,0.9908826716786309,0.002214626492814173,12444558.0,83543.40252518654,0.022406035618078655,1.5,yaprak
7.747055289476878,1.885098342255697,0.4308111488524497,0.045138734106547174,0.9907041360766535,0.0020506615830974593,12390091.5,36806.793630838394,0.11492867645441535,1.5,yaprak
7.524715282205866,1.8616840392691167,0.4357880868881968,0.0383621130339215,0.9954666134529304,0.0014810662458542476,12521678.5,65307.69786572456,0.0368929737716161,1.5,yaprak
7.288069983759451,1.8795966346180375,0.42915062610610133,0.045337494787376816,0.99102578228843,0.002068567863521045,12911348.5,73892.1559252739,0.029715619703984137,1.5,yaprak
7.535234834716462,1.9362186994924082,0.419942256940748,0.04248535012466506,0.9924945960761641,0.0018163168804261132,11815295.5,79154.6133133173,0.02369747035091984,1.5,yaprak
6.3719028994777815,1.7916711809936303,0.4389763578775034,0.04145433008779602,0.9956236416466367,0.0017295346472183258,13834329.0,79022.02334725857,0.027840156518032226,1.5,yaprak
7.199307528392275,1.8530426712388384,0.43461127249388426,0.04048177849070791,0.9952926426885702,0.00164938434113509,13161481.5,73147.9019690752,0.030910846131963973,1.5,yaprak
6.686730185869947,1.848066648939494,0.4289175826765052,0.044481999759799974,0.9919335630590391,0.0019910663076855933,10864819.0,83001.33771157265,0.019818107325468917,1.5,yaprak
6.684278946245492,1.835038961836628,0.4320961089712961,0.04700842997661154,0.9908956570747106,0.002223774159548913,12978695.0,79634.03170204163,0.02571837255816047,1.5,yaprak
7.773550877908836,1.9122491153623409,0.42810086570290096,0.0446224810898478,0.9904337356047739,0.0020040238865930327,10950630.0,40562.66698825359,0.08363652212924626,1.5,yaprak
5.4444544783487565,1.6555569429235013,0.462384143501022,0.055141306142254314,0.9950726724549115,0.0030601062969280936,23990001.0,19996.0,0.7539696667200192,1.5,yaprak
5.984853194989258,1.7218804241304868,0.45335193344444136,0.05436501685071849,0.9908949595130879,0.002974536146017201,23989973.0,20016.769551992416,0.7524049509973629,1.5,yaprak
5.490708411994578,1.6433753336685268,0.4665508790473677,0.060417543781625595,0.9914657081178069,0.003674204711443736,23990001.0,19996.0,0.7539696667200192,1.5,yaprak
5.252381390176174,1.6016794342672105,0.47590780507221053,0.05671054917210061,0.9943089880565542,0.0032380642471152954,23990001.0,19996.0,0.7539696667200192,1.5,yaprak
4.95836753482386,1.5451052725605694,0.4865469334222263,0.05824673696487642,0.9946319417229392,0.0034160306842525804,23990001.0,19996.0,0.7539696667200192,1.5,yaprak
5.603416814706632,1.6670963575243016,0.46020211014239926,0.04419814982989481,0.9960874628001815,0.0019663854444914933,23989921.5,20049.43859875202,0.7499533645554106,1.5,yaprak
5.165615379482275,1.6161667137218552,0.4680233241261463,0.04532632695520802,0.9981257525714671,0.002067798575879829,23990001.0,19996.0,0.7539696667200192,1.5,yaprak
5.648299317775349,1.6843501669951015,0.4558532344795321,0.04311113048635648,0.9969349819346951,0.001870567817875238,23990001.0,19996.0,0.7539696667200192,1.5,yaprak
5.580310240359769,1.6865369028937631,0.4554919333542544,0.051108078244880104,0.9949142206151482,0.0026287449464087267,23990001.0,19996.0,0.7539696667200192,1.5,yaprak
5.71837731127626,1.7051218423867072,0.4514997480455394,0.0552894854011592,0.992499112105604,0.0030764581875434246,23990001.0,19996.0,0.7539696667200192,1.5,yaprak
6.51767107147057,1.7831966354423336,0.44467247862309023,0.04488252716738157,0.9940075266534137,0.002027412256663138,23977107.0,21255.370829820633,0.6669131378565086,1.5,yaprak
4.604416586640281,1.5111422959524528,0.4898988381278713,0.07065634246841944,0.9928427736884231,0.005026226564738388,23990001.0,19996.0,0.7539696667200192,1.5,yaprak
4.674491935006277,1.5212349776267313,0.4886821056089975,0.06437154945249897,0.9947981186043465,0.0041719936481893335,23990001.0,19996.0,0.7539696667200192,1.5,yaprak
4.79438934023579,1.5415550958162705,0.4842835707876474,0.06185790837556471,0.9962893650089231,0.0038523303782753097,23990001.0,19996.0,0.7539696667200192,1.5,yaprak
4.924152951879815,1.5795317897565617,0.47460109879581036,0.060827595890677134,0.9937322631701079,0.003724662919000512,23990001.0,19996.0,0.7539696667200192,1.5,yaprak
4.876413351898482,1.5545859755261449,0.48245300727528884,0.06127415344835002,0.9954927118155319,0.0037804189057237575,23990001.0,19996.0,0.7539696667200192,1.5,yaprak
4.70145896692282,1.526428833521274,0.48782127692064525,0.058043944969016076,0.9953532502415441,0.0033921415598620577,23990001.0,19996.0,0.7539696667200192,1.5,yaprak
4.406270338662818,1.4734091250958425,0.49771546822712415,0.0674028907516553,0.992804921750631,0.0045742452857595985,23990001.0,19996.0,0.7539696667200192,1.5,yaprak
4.862839175442653,1.5459521324703829,0.4847392873308495,0.0606141260112001,0.9942532197150198,0.0036993749124460506,23990001.0,19996.0,0.7539696667200192,1.5,yaprak
4.849765108673097,1.5467963112770637,0.48494933768664367,0.05964135385961525,0.9943765392945283,0.003581637619712007,23990001.0,19996.0,0.7539696667200192,1.5,yaprak
4.795582241274188,1.5372940827965518,0.48583556143824197,0.05951528796632048,0.9959893606235997,0.0035662774283032363,23990001.0,19996.0,0.7539696667200192,1.5,yaprak
4.183212374701928,1.415800064042811,0.5088695039419797,0.07797211016083949,0.9948598027608107,0.006120817911569196,23990001.0,19996.0,0.7539696667200192,1.5,yaprak
5.295777689628143,1.596016229417818,0.47585884418070407,0.07431255501340436,0.9885867976067211,0.005559213703678121,23990001.0,19996.0,0.7539696667200192,1.5,yaprak
4.01761885933489,1.3920438541500706,0.5146468076827784,0.07899745189259522,0.9914124310888563,0.006284524726780533,23990001.0,19996.0,0.7539696667200192,1.5,yaprak
5.43853794685123,1.5881301325480588,0.4793612299390932,0.07151291448014663,0.9942819745823291,0.005148895108338389,23990001.0,19996.0,0.7539696667200192,1.5,yaprak
5.5959264582451365,1.6042323702113943,0.48029742549156923,0.07487127873544479,0.9896609124403846,0.005645017383387307,23990001.0,19996.0,0.7539696667200192,1.5,yaprak
5.286487455329972,1.5794471730578006,0.48051078845215317,0.07373194375274171,0.9858346034810411,0.005473983380732994,23989985.5,20001.07106769085,0.7535869056453073,1.5,yaprak
5.370564715682627,1.6038970692935688,0.47487852470093145,0.07359287402740866,0.9905154070195198,0.005454490670927788,23989917.0,20018.6274163723,0.752263544894826,1.5,yaprak
4.254171107671407,1.4308518485489725,0.505615766491667,0.07840459343120768,0.990556208822714,0.006189580335832428,23989997.5,19998.24264061451,0.7538004630683034,1.5,yaprak
5.064299693493451,1.560483950514759,0.4817636769690675,0.07286268967786866,0.9933100048130441,0.005346510968745267,23990001.0,19996.0,0.7539696667200192,1.5,yaprak
3.889686905995571,1.3723887803549564,0.5177033747653838,0.08048871144563552,0.994145858009191,0.006523548634393299,23990001.0,19996.0,0.7539696667200192,1.5,yaprak
3.7302944814088286,1.3327141054204215,0.5266757393559182,0.08473851513060157,0.9958923061860361,0.0072302300204772265,23990001.0,19996.0,0.7539696667200192,1.5,yaprak
4.430011066887626,1.4460757603509768,0.5058240756028206,0.0803097125936612,0.991895737078179,0.006494720512090485,23990001.0,19996.0,0.7539696667200192,1.5,yaprak
5.200153007241431,1.5795178399203937,0.47952052661847006,0.07531919487388153,0.9942733198528789,0.0057113765362971506,23990001.0,19996.0,0.7539696667200192,1.5,yaprak
5.20744967699683,1.5759140627180663,0.48123472405620005,0.07493504388834595,0.9912887204181848,0.005653496467966217,23989954.5,20021.21320283413,0.7520704198561639,1.5,yaprak
5.754522313848581,1.6080334588512453,0.4812581233841994,0.07490306506862718,0.9909912784386983,0.005649301184311723,23989973.0,20010.48528122902,0.7528776090894179,1.5,yaprak
3.8977770243119316,1.3520389187414348,0.5253084476681872,0.07893362841500773,0.9934981805063219,0.0062746538051367704,23990001.0,19996.0,0.7539696667200192,1.5,yaprak
4.013875619541967,1.3880202745223882,0.5150792053585068,0.07537140338714177,0.9894438297157206,0.005720289984473923,23989920.0,20015.597979068756,0.7524913721576937,1.5,yaprak
4.16214301818131,1.4065906557060612,0.5110654705580587,0.07678151106810877,0.9953951941196424,0.005936226015216744,23990001.0,19996.0,0.7539696667200192,1.5,yaprak
5.377316903011477,1.5664711026229523,0.4870085325663832,0.07421833849595229,0.9928145701310251,0.005547027056903015,23989995.0,19997.65685415268,0.7538445469413848,1.5,yaprak
4.014805912449061,1.386222661721299,0.5165819461989627,0.07543223330073731,0.9958837609299889,0.005729485777706901,23990001.0,19996.0,0.7539696667200192,1.5,yaprak
3.541770419295377,1.303851671263307,0.5333328200338993,0.08551355011510378,0.9932317296264543,0.007363483412270155,23990001.0,19996.0,0.7539696667200192,1.5,yaprak
3.9826063698884004,1.3694451651240351,0.5238225210731312,0.06956683935872288,0.9968210724791107,0.00487437261964156,23990001.0,19996.0,0.7539696667200192,1.5,yaprak
4.67423476024275,1.4911149941438027,0.49532146311354175,0.07985109895467521,0.9928710464044919,0.0064186724168869115,23989693.5,20075.840619802475,0.7479750043164473,1.5,yaprak
5.424184648103443,1.5705137531213715,0.48576132718465403,0.07812262995863946,0.9916217642024638,0.006145189654375003,23990001.0,19996.0,0.7539696667200192,1.5,yaprak
4.363539872447763,1.4288883075642127,0.5097932872403714,0.08180668344581828,0.9930220244899783,0.00673892413833292,23989991.5,20001.07106769085,0.753587094120679,1.5,yaprak
5.009597080758743,1.4911215572878895,0.5021613250215293,0.07607815660026332,0.9924138626851686,0.005828518302691484,23989999.0,19996.82842707634,0.7539071343670525,1.5,yaprak
4.767155504676051,1.4928285752711496,0.49751184875633164,0.07649195937305703,0.9944178638578448,0.005892097137927747,23989979.0,20008.48528122902,0.7530283166126545,1.5,yaprak
5.416836576514367,1.6685287308710373,0.45719930391304653,0.0643652204050359,0.9930685910635255,0.004170429271772043,23989994.5,19998.24264061451,0.753800368803959,1.5,yaprak
4.466063222333078,1.508858575393217,0.4863234071656999,0.07091172310536081,0.9924464361514829,0.005062062571510394,23990001.0,19996.0,0.7539696667200192,1.5,yaprak
4.154078389611326,1.4078263220415932,0.5122391781357718,0.08632685562278408,0.9882972483700694,0.00750692017200736,23989998.0,19997.65685415268,0.7538446412112518,1.5,yaprak
4.250592974977886,1.403425745352713,0.5153013345167322,0.08442110105342417,0.9924424159052856,0.007177167400359589,23990001.0,19996.0,0.7539696667200192,1.5,yaprak
5.911951809232408,1.626639146655124,0.48031819696347,0.07985709498520191,0.9910955464530032,0.006420956638843213,23990001.0,19996.0,0.7539696667200192,1.5,yaprak
3.9652575477704444,1.3697237693520399,0.5197914952829251,0.08518242804140191,0.9903734295951212,0.007304646128984739,23989963.5,20004.72792184353,0.7533107293922787,1.5,yaprak
4.45186124117049,1.4565753735135978,0.5022461267319149,0.07542828429491034,0.9959362847688834,0.005730355003692868,23989882.5,20013.21320295334,0.7526695401666694,1.5,yaprak
4.591396824498868,1.4459069099437782,0.5063498153495365,0.07241242743906615,0.9932538733617585,0.005279921996073744,23989973.0,20007.455843687057,0.7531056209251186,1.5,yaprak
6.312104730682862,1.7529762303148382,0.4491235920555152,0.048466921433146536,0.9939317376503052,0.002364273383611226,23972933.0,23493.472542762756,0.545803865950776,1.5,yaprak
5.411233781626725,1.6545828656541104,0.4612937466473329,0.0519730891261134,0.9946822747336473,0.002718875552213992,23990001.0,19996.0,0.7539696667200192,1.5,yaprak
5.440465554920165,1.6697809780173323,0.45721220118873845,0.05911589670838782,0.9920101237269457,0.003517263977249938,23990001.0,19996.0,0.7539696667200192,1.5,yaprak
5.840265228011899,1.737174579960941,0.4445713994828833,0.05103953810575865,0.993991576873539,0.0026213826617824338,23990001.0,19996.0,0.7539696667200192,1.5,yaprak
5.498794189493768,1.6643556785856277,0.4614711273842078,0.048865067665813666,0.9951862378930079,0.0024035685147259186,23990001.0,19996.0,0.7539696667200192,1.5,yaprak
5.619154247833822,1.6848428597093819,0.45642249192147777,0.05398602338444165,0.9920423890315768,0.002933341892617373,23990001.0,19996.0,0.7539696667200192,1.5,yaprak
5.595207212847397,1.7021002781672827,0.4504769093333451,0.05533987502637616,0.9948481435936569,0.003081891711907146,23990001.0,19996.0,0.7539696667200192,1.5,yaprak
5.556050527756845,1.673560479118119,0.45921204215824196,0.04638638142939814,0.9960944631040585,0.002165600382791688,23990000.0,19996.82842707634,0.7539071657929451,1.5,yaprak
5.447552648264466,1.6674217240115328,0.4583374814611052,0.05324525329232083,0.9946848774354542,0.00285328132039968,23990001.0,19996.0,0.7539696667200192,1.5,yaprak
5.020229617157309,1.5876447474130215,0.47388625819864094,0.04812365609719966,0.9957485561626008,0.002331451215451986,23990001.0,19996.0,0.7539696667200192,1.5,yaprak
5.428454524512114,1.6415692297838398,0.4649256577890344,0.05173005545236531,0.9954351985271498,0.0026933973726168984,23990001.0,19996.0,0.7539696667200192,1.5,yaprak
5.467557542189697,1.6720809898752242,0.45643699130410853,0.05419289061625282,0.9958541292766856,0.0029559754391839253,23990001.0,19996.0,0.7539696667200192,1.5,yaprak
5.653340574609786,1.6788396985451364,0.45902831857860327,0.046490261282232166,0.9951125097801663,0.002175693214109933,23990001.0,19996.0,0.7539696667200192,1.5,yaprak
5.358665966529499,1.6471777649693216,0.4618624580633768,0.059095324956746256,0.9923616100200635,0.0035150331912583302,23990001.0,19996.0,0.7539696667200192,1.5,yaprak
5.83408702074025,1.734925305857117,0.4456001777076921,0.05729424666429385,0.9909477417105926,0.003303416102641946,23990001.0,19996.0,0.7539696667200192,1.5,yaprak
5.455513628427091,1.6776247988632533,0.45520424659546455,0.051133452174561396,0.9947408453451693,0.0026313661779249187,23990001.0,19996.0,0.7539696667200192,1.5,yaprak
273.6485202027149,10.949803425639368,0.12151826337325276,0.012309312366092128,0.9369668868876059,0.00015247288484758711,22459.0,3294.98308634758,0.02599524410007019,1.0,yaprak
219.3452338684652,9.681000823571702,0.13428467661206792,0.013350647896463895,0.9455461784533605,0.0001788838150491717,17091.0,2159.2286924123764,0.04606595223863109,0.8973214285714286,yaprak
254.5077996625679,10.207060953403966,0.14702811871130106,0.013006300725796323,0.9465962923442535,0.0001697549977599128,10995.0,1833.6063311100006,0.041095370294326417,1.021978021978022,yaprak
329.1040283425506,11.744517651744943,0.11866379698188594,0.013015499327765065,0.9142233728929032,0.00016998696708820342,24130.0,2560.9343153238297,0.04623494090779627,0.9285714285714286,yaprak
375.4626959369922,12.131838179003124,0.12920744996109712,0.014253666033996866,0.9020393192810165,0.00020388573430166684,33292.0,3157.4582612514496,0.04196377148646182,1.0,yaprak
262.5434905401639,9.786908301926045,0.1586601584275181,0.014904205275530756,0.9364414216470451,0.00022314455026415048,26302.0,1854.9545263051987,0.09605768204031338,0.90625,yaprak
278.1745482389626,9.505878737759684,0.1839212641855319,0.01614906320042128,0.9327754432691496,0.00026191965621512304,25226.0,2507.7627435922623,0.050406363081727225,1.0,yaprak
226.57466643314143,9.546587459387865,0.15657375059666592,0.013579480171792679,0.9532586677717217,0.00018567153719128835,26465.5,2880.7749371528625,0.04007479480750123,0.9375,yaprak
195.60037463319742,8.647809183812722,0.167397162516989,0.015373418871783498,0.9404494305382941,0.0002374727696741092,32401.5,1721.7758125066757,0.13734782133789164,0.9910714285714286,yaprak
324.59330412353927,10.685597882488661,0.1531728078492953,0.015814813217552126,0.9214252116357557,0.00025116352534627597,32258.0,1978.469246506691,0.1035592016405837,1.0,yaprak
401.3337932442165,12.245778077000118,0.12285006710682529,0.013812518525361108,0.881499417530451,0.00019157838650196612,39019.0,2804.9343173503876,0.06232188879438918,1.0,yaprak
346.81973418698107,11.999698387583452,0.12253200296187042,0.013268474158790858,0.895878012369973,0.0001766173564532167,27394.0,2599.703868508339,0.05093514590930226,1.0,yaprak
424.4584655754019,12.926734395963354,0.11828019619538761,0.012675810207191716,0.8744109362067309,0.00016112690448724724,18285.0,1633.4986824989319,0.08611270896394675,0.9828571428571429,yaprak
775.3416104797298,18.849165490352867,0.07044512696554232,0.009555749460781542,0.823483892482213,9.168408116749593e-05,28660.5,3949.6218169927597,0.02308780258716302,1.0,yaprak
615.0584021423191,16.154949042562656,0.08714163601071202,0.010390743474766762,0.8662616327072175,0.00010830834555648547,25379.0,2944.237919449806,0.03679074364363192,0.7946428571428571,yaprak
401.3529354099305,13.21454147551305,0.10500505867037525,0.011611575748821134,0.905191224586877,0.00013537774448972112,13768.5,2277.4957184791565,0.03335656754489073,0.6785714285714286,yaprak
643.7160672003354,16.305862821135666,0.08802739927911347,0.010836852134678538,0.8508307426016959,0.00011781721858450682,30593.5,3735.0877664089203,0.027557347079775578,1.0,yaprak
562.3870237401329,15.158696249747049,0.09550676280862135,0.01148872880748891,0.8586227957001125,0.00013256370632396097,18337.5,4007.4796810150146,0.014348527446048639,0.9375,yaprak
558.2066894084095,14.15329622267151,0.11523999750690259,0.012429967994940777,0.856512455866305,0.00015517164341140858,30276.0,4297.344688415527,0.020601933510873218,1.0,yaprak
16.453555601631507,2.6547833724903684,0.35503346653610246,0.025692524335910828,0.9946068829780685,0.0006630893773435947,3292136.5,43353.439747571945,0.02201104065351373,0.6027851458885941,yaprak
623.6205285549677,16.31747672833382,0.0876575479917616,0.01040867423814034,0.8571791865540599,0.00010873075146091793,15337.0,2935.350618004799,0.022368162757246,0.8169642857142857,yaprak
33.77265033953389,3.4976772436116037,0.3220605465275341,0.0218511259148648,0.9924580305861916,0.0004794735484854436,1555026.5,23952.53375029564,0.03406000731668785,0.7567954220314735,yaprak
394.11364109098065,12.580141128309926,0.12299272901631518,0.012205520300726663,0.912045695758377,0.0001494643425176427,22299.5,2628.774936556816,0.0405506834735802,1.0,yaprak
146.1525806253889,6.93592523710719,0.20571480098942102,0.01951889300255584,0.951542762887591,0.0003831832208858286,29586.5,2623.21144759655,0.05403023526252363,1.0,yaprak
442.0681078948015,13.130427811597299,0.10591423739040727,0.013356511633314264,0.8609345146965127,0.00017921420218377303,7747.0,2630.8754410743713,0.014065100711620747,1.3742331288343559,yaprak
387.2476506594441,12.376962152726366,0.1313996187910996,0.013595001854248384,0.8964828471477411,0.0001855166714261421,32629.0,2969.669377684593,0.04649405516538071,1.0,yaprak
506.68464652076403,14.681557007733568,0.09300438291710833,0.010352535842383201,0.9058114197939269,0.00010763853705230579,17975.5,2254.5596457719803,0.04443931794602463,0.9375,yaprak
294.50733107370706,10.8658035480887,0.12467211033887336,0.014103103205351977,0.908514652194068,0.0001997810474606114,19904.5,4320.499014496803,0.01339964571447981,1.0,yaprak
320.11689890456506,11.532217071887896,0.12131678638761312,0.014093173325784013,0.9163490958387863,0.0001995748174091957,19488.5,1806.3687407970428,0.07505427930546103,0.5758928571428571,yaprak
430.0720141111406,13.558542793011176,0.09897296904636514,0.01138929603632978,0.8990252399181471,0.0001300934725908169,10997.0,2086.45914041996,0.03174419516732135,0.9217877094972067,yaprak
291.0829924305845,11.196208651786723,0.11959031870594863,0.013229431002716813,0.9246117535263048,0.00017580702708099198,31955.5,2721.5789771080017,0.0542142679772349,1.0,yaprak
288.36134247173965,10.142930239937247,0.14027471030345148,0.015776704957613116,0.903218969162644,0.0002501372034818299,34426.5,3412.161796927452,0.03715724478957643,1.0,yaprak
222.63796152378637,9.483910675325381,0.1395862781115875,0.01518453081541904,0.9206045300638115,0.0002318089548718632,24771.0,3164.120169043541,0.03109191453230869,1.0,yaprak
430.2148022191202,13.61636103394851,0.09429820018190535,0.012462662980516445,0.8622107407513744,0.0001559238947464604,25366.0,2432.424651145935,0.05387447610994929,0.9419642857142857,yaprak
209.67383037492613,9.217193483323285,0.1444313880489482,0.01621371568658789,0.9257631132654942,0.0002643336772606108,26315.5,3630.9557349681854,0.025083005953282264,1.0,yaprak
413.87504416797094,12.805762455725741,0.11912429390978682,0.012704153056331992,0.9005398924103841,0.00016219380376242233,23885.0,3500.25219976902,0.024498327449640023,1.0,yaprak
