@RELATION wavelet_glcm_analysis

@ATTRIBUTE glcm_contrast NUMERIC
@ATTRIBUTE glcm_dissimilarity NUMERIC
@ATTRIBUTE glcm_homogeneity NUMERIC
@ATTRIBUTE glcm_energy NUMERIC
@ATTRIBUTE glcm_correlation NUMERIC
@ATTRIBUTE glcm_ASM NUMERIC
@ATTRIBUTE wavelet_LL_mean NUMERIC
@ATTRIBUTE wavelet_LL_std NUMERIC
@ATTRIBUTE wavelet_LH_energy NUMERIC
@ATTRIBUTE wavelet_HL_energy NUMERIC
@ATTRIBUTE wavelet_HH_energy NUMERIC
@ATTRIBUTE class {KuruYaprak,Oak,TazeYaprak,yaprak}

@DATA
159.98168542448002,8.546668754205106,0.1467318946522684,0.013649874017511478,0.9620246064196722,0.00018782128147359965,267.6648254394531,90.66715669499935,1368471.2500000005,2025185.250000001,156350.25000000006,KuruYaprak
124.28430505995495,7.362438710471886,0.16649431166738696,0.015055460707669832,0.9683236134551051,0.00022780603096115548,272.7159729003906,87.67270537177077,1242343.2500000005,1375908.2500000005,152539.25000000006,KuruYaprak
137.97565186767295,7.568498849601028,0.1813128881502596,0.014794215707204668,0.970252117230295,0.00022000220892542932,278.66680908203125,95.21393088048896,1261756.0000000005,1646064.0000000005,195265.00000000006,KuruYaprak
169.98334569336902,8.549112375648825,0.15031916958662103,0.014797610798273672,0.9536979404056822,0.00022010190770881252,268.4959411621094,84.27235545423041,1665639.7500000005,1832944.7500000007,280263.7500000001,KuruYaprak
183.97299057154396,8.650802981425626,0.15974775287505671,0.01611528288966341,0.9494743452144271,0.00026108863379130674,247.96481323242188,83.8560245484957,1521861.7500000005,2239038.750000001,361790.7500000001,KuruYaprak
135.71250479082988,7.249112796160226,0.19030699028358838,0.016689353506565672,0.9660669878209446,0.0002801603566712866,265.9894714355469,88.36015069765565,1129091.7500000005,1694235.7500000005,210007.75000000006,KuruYaprak
146.65276966792203,7.049733696174641,0.21935621579851333,0.018027082589062115,0.9633339411572945,0.00032672537602186034,251.22225952148438,88.28787599302854,1257267.7500000005,1767434.7500000007,242841.75000000006,KuruYaprak
135.03738444949212,7.539197664359792,0.18500994424220762,0.014997033568340945,0.9715053235938866,0.00022678822184702866,262.8555603027344,96.40467227153597,1140794.7500000005,1710508.7500000005,126528.75000000004,KuruYaprak
107.55193597414677,6.5864903522683775,0.20021793434856264,0.017201925926721533,0.9662769479230159,0.00029765659238533353,263.51824951171875,78.99252787863226,902283.5000000003,1360694.5000000005,140931.50000000003,KuruYaprak
161.0633070213455,7.703026330017446,0.18693700881608202,0.017747015330658592,0.9593968540319249,0.0003167774622126119,244.61517333984375,87.79230009405674,1579869.0000000005,1742334.0000000005,291260.0000000001,KuruYaprak
211.65539012940656,9.116389624783872,0.15134920787462855,0.015533158402978201,0.9336325306306373,0.00024260525722867365,234.98831176757812,78.05587586975373,1931623.7500000005,2412649.750000001,291501.7500000001,KuruYaprak
183.85981530542,8.8311667087179,0.15306443191536678,0.015140967514612868,0.9418122250518509,0.0002303916062797581,254.57012939453125,77.90702792483432,1985836.5000000007,1829805.5000000007,270610.5000000001,KuruYaprak
206.29379380827828,9.159776783568862,0.14994657119730745,0.014674526509119936,0.9347810930566033,0.00021638128740385291,270.3175964355469,77.74485134215699,1917454.7500000007,2338272.750000001,412459.7500000002,KuruYaprak
416.28024766617636,14.019999204031848,0.09023176247555138,0.010889341394358078,0.8962504036883013,0.00011936410700003991,262.3006896972656,86.29539004011562,3638923.2500000014,5095042.250000002,568465.2500000002,KuruYaprak
325.36894723484716,11.86024349108487,0.11273392527021801,0.011924231956312403,0.924311192987786,0.00014294903529290655,257.626708984375,90.29488533621468,2967328.000000001,3835427.0000000014,456343.0000000002,KuruYaprak
227.38425860847576,10.11874210039405,0.12988790888137408,0.013031729167993151,0.9437114024193175,0.00017079939856919107,260.1556396484375,88.11591892722721,2086550.0000000007,2736554.000000001,252861.0000000001,KuruYaprak
332.1573204566891,11.87501980908762,0.11357419414718481,0.012448322669608389,0.9169446317306531,0.00015577739620211892,253.03341674804688,86.93775553265856,3285397.250000001,3580892.250000001,520450.2500000002,KuruYaprak
300.8013832420337,11.339204032102828,0.12000478364084363,0.012980306436222878,0.9187596442339115,0.00016957676949579041,253.4793701171875,83.66429614044162,2639952.500000001,3828871.500000001,356079.5000000001,KuruYaprak
288.86922986352874,10.549378814638578,0.14079592627618404,0.013986882770083019,0.9200480444270646,0.00019679208134322707,246.275146484375,82.69584636092455,2442524.000000001,3443954.000000001,468176.0000000001,KuruYaprak
250.35806938738142,10.02782645196545,0.1372396967482075,0.014299510430114617,0.917753661425406,0.0002052302711193215,275.8070068359375,75.80016003417794,2340225.500000001,2515641.500000001,796181.5000000002,KuruYaprak
331.63567992179594,12.05789358359739,0.11384396619427176,0.011914134131439082,0.918336052569521,0.0001427876654481033,260.457763671875,87.57492372343155,2714295.500000001,4251851.500000002,475228.5000000002,KuruYaprak
232.06348600899926,9.049534584054447,0.16750156970694907,0.01480343511914517,0.9481183939009133,0.0002199023949081588,257.193115234375,92.80127131262091,1762541.5000000005,2633270.500000001,885882.5000000002,KuruYaprak
203.78353609490313,9.076072108684386,0.1585826256136834,0.014118677568254601,0.9524504717290494,0.00020046364969862943,236.20504760742188,91.09243469400532,2120249.750000001,2039280.7500000007,332839.7500000001,KuruYaprak
77.3162796911063,5.182070162317477,0.2435421133643884,0.021678242189423887,0.9737278218033868,0.0004732946222851347,280.1073303222656,75.9992280256831,595500.2500000002,1016501.2500000002,117685.25000000006,KuruYaprak
239.37638020833793,9.91608479911563,0.13226010047401698,0.015099364150086385,0.919221641663687,0.0002293786712793587,286.7381896972656,74.76338355227591,2110476.750000001,2978704.750000001,285060.7500000001,KuruYaprak
206.37266963128215,9.190759788903446,0.16280670208217296,0.015330227736643545,0.9418822803224224,0.00023628438953683396,239.62612915039062,82.60741967379812,1903947.2500000007,2413169.250000001,294367.2500000001,KuruYaprak
284.2820515546944,11.209387345011248,0.11677748600097843,0.01159602171696388,0.9446196481881629,0.00013531330909093345,262.8428649902344,99.32882756515649,2823180.250000001,3202423.2500000014,338977.25000000006,KuruYaprak
163.76176882089,8.33263888888889,0.1516926848033523,0.015777983712058796,0.9467620380075169,0.0002503601538654133,260.6282653808594,76.96717003820731,1713183.2500000005,1712290.2500000005,207609.25000000006,KuruYaprak
178.3877220299945,8.687137248894745,0.1512132559884713,0.01588512529188636,0.9513966721685502,0.0002540218705803929,271.3142395019531,84.17617701784232,1380922.7500000005,2323023.750000001,232149.75000000006,KuruYaprak
228.57847325849093,9.97627951088518,0.12734028032822903,0.01307383158165904,0.9435205015661419,0.00017179779054329292,278.1955871582031,88.18624831308775,2147146.750000001,2590377.750000001,315610.7500000001,KuruYaprak
171.13958940071944,8.64966136822378,0.14840332544825618,0.014873213762964892,0.9540256118075976,0.00022258304572807185,255.59762573242188,84.92278582970931,1865909.2500000007,1755814.2500000005,162028.25000000006,KuruYaprak
161.18889782476322,7.810682835327819,0.17000289510663122,0.01762375040487618,0.9432325325550082,0.00031247094286903477,252.57052612304688,73.92419747604367,1373139.7500000005,1982670.7500000005,193511.75000000006,KuruYaprak
127.78344131464189,7.341151900711281,0.16962990545068216,0.016940485147689373,0.9526265115304955,0.00028895778745157227,266.5181884765625,72.25550692673791,1007743.5000000003,1714641.5000000007,130559.50000000004,KuruYaprak
228.85621434665939,10.114658694973055,0.12079076804051664,0.014228549202045604,0.9214162204718712,0.00020363094771244886,241.86737060546875,74.26196348715233,2489109.000000001,2275702.000000001,330537.0000000001,KuruYaprak
116.80207852749164,7.060434057814329,0.17586988679470084,0.018120319257781407,0.9570915685504716,0.0003305745982309886,255.86508178710938,72.68082057377985,1064981.7500000005,1388375.7500000005,145147.75000000006,KuruYaprak
229.73388265631792,9.748861180195082,0.14446242411661817,0.014127636999081903,0.9420104774955756,0.0002009000440778753,251.40826416015625,87.35204553805352,2090428.5000000007,2660369.500000001,287845.5000000001,KuruYaprak
171.9551509035055,8.18201133578453,0.17369456008140868,0.017146427606149282,0.9494919832870126,0.0002956079842976442,236.1290283203125,81.02510368780958,1503622.5000000007,2006119.500000001,281398.50000000006,KuruYaprak
162.52306588812613,8.442197321943501,0.1462796396445091,0.01541734939123743,0.9483738487284568,0.0002390135743944316,260.546142578125,77.9519497948545,1838135.0000000007,1596521.0000000005,182839.00000000006,KuruYaprak
154.0430920349238,7.654826554089787,0.16648424948558693,0.016485235076111493,0.9542548284203174,0.0002734640439340145,238.34564208984375,80.74005127225348,1291924.5000000005,2083354.5000000007,192466.50000000006,KuruYaprak
147.9419508872855,7.831306063172852,0.16621751685586797,0.01721740792944583,0.9445905708603426,0.00029826476049059174,256.09027099609375,71.68732013569142,1308529.0000000005,1817175.0000000007,146367.00000000006,KuruYaprak
152.07936139345935,7.716191939398385,0.1795550733431134,0.01670484573624328,0.9578585045287024,0.0002806073932509327,266.373779296875,83.68384473045687,1779594.5000000005,1369684.5000000005,266193.5000000001,KuruYaprak
315.4268119683619,11.450421457492041,0.12783445671263605,0.012358358317865149,0.926162778939034,0.00015347145826658692,263.123779296875,90.08084950061291,2982210.000000001,3618974.000000001,497695.0000000002,KuruYaprak
186.53173325764536,9.220812037437478,0.13566742912786312,0.013281516055802127,0.9559339862260491,0.00017713978073907163,271.0738830566406,90.62020623587446,1728856.2500000005,2084557.2500000007,332414.2500000001,KuruYaprak
161.1138874171033,7.851798436899302,0.1778828107303257,0.015457204512318792,0.9557039277097014,0.0002403758654189474,275.3143310546875,84.00162656937401,1191800.0000000005,2168125.000000001,230703.00000000006,KuruYaprak
171.690867815268,8.465178446991578,0.16029864097792518,0.014173350338819151,0.9638609312275452,0.00020192992730453502,255.26626586914062,96.23687501355512,1627535.2500000005,1981751.2500000007,233848.25000000006,KuruYaprak
178.81193214449573,8.80046083537589,0.15062108029240207,0.01528314396351525,0.9426725286341513,0.00023498337494379451,249.63861083984375,77.41341331423683,1656931.0000000005,2133625.000000001,188976.00000000006,KuruYaprak
198.60576005923835,9.582300302167354,0.1322446824332924,0.013577763629917795,0.9438430107905837,0.00018537353849655249,273.6743469238281,82.53240727133033,1833780.2500000005,2297759.250000001,276102.2500000001,KuruYaprak
227.64582962382866,10.134603202494086,0.1336662978970496,0.013170889336080396,0.9430934245592728,0.0001743158089713289,262.32891845703125,87.74261146446295,2393935.500000001,2364576.500000001,322391.5000000001,KuruYaprak
165.32777786789353,8.298748678393002,0.17740198497522247,0.016805897778426865,0.9619189537802341,0.0002839250193956336,245.81317138671875,92.04259122660517,1970555.5000000007,1509301.5000000005,214053.5000000001,KuruYaprak
92.47086443615189,3.8543364481207605,0.5284382954227382,0.0896839660989736,0.9872767509604049,0.008067290536274883,344.20751953125,119.89660957222138,686663.0000000002,1099524.0000000005,265694.00000000006,KuruYaprak
84.5289838193217,3.2707706320884533,0.6373550958785574,0.1437125107187203,0.9872657926192819,0.020708379929480224,422.7484436035156,114.4663573462979,630109.2500000002,1004305.2500000002,230675.25000000012,KuruYaprak
73.32554095780287,2.562507358948391,0.681742454439825,0.15402383482705445,0.9910110489384406,0.023778297787741064,421.4951171875,127.0443947422927,365726.00000000006,1141149.0000000002,149172.00000000006,KuruYaprak
87.2216315990216,3.391067543132312,0.6264896555440966,0.13610945107141165,0.987586672816532,0.01857538063838122,417.8743591308594,117.80334770439767,732964.7500000002,890257.7500000001,257958.7500000001,KuruYaprak
67.72384842968862,2.296273909073351,0.7054846974202211,0.1706962707548509,0.9915926288782778,0.029190647586496185,426.0779113769531,126.26555957262242,273354.75000000006,1111808.7500000005,132852.75,KuruYaprak
75.61834025674993,2.6110305381342664,0.6727716461962651,0.15939254226551203,0.9919062721920129,0.025452587629102123,412.657958984375,135.98985414294197,413981.0000000001,1271833.0000000005,149216.00000000003,KuruYaprak
75.93576088523375,2.7332000312378764,0.6541759042555091,0.1527167237951865,0.9924902461337087,0.02336883897218818,403.1052551269531,141.54196660494844,514496.7500000002,1109917.7500000002,131463.75000000003,KuruYaprak
85.67386556552466,3.0990339202468635,0.6119314478323976,0.14191972987225926,0.9924893949169892,0.0201800751493368,388.0458679199219,150.40372330952226,602425.7500000001,1060452.7500000002,173998.75000000006,KuruYaprak
90.59000171207867,3.130606737793005,0.6149221824924503,0.13648128234167123,0.9916474782371089,0.018666504280411153,395.8871765136719,146.58364900543523,595622.2500000002,1249236.2500000005,209329.25000000006,KuruYaprak
90.68311206927278,3.0030542489665972,0.6447190881710327,0.1510198097105823,0.9911812723413724,0.022849587062172362,406.9156799316406,142.69164953077862,518605.2500000002,1247893.2500000002,224729.25000000006,KuruYaprak
95.69826144090914,2.9824193669500794,0.6502798862432146,0.1461240444175631,0.9902304519900595,0.02140911556004267,411.309326171875,139.19084192052998,524984.0000000001,1477991.0000000005,178801.00000000006,KuruYaprak
88.97328378808423,2.610269202349962,0.6921682984913239,0.16693978973101709,0.9899593434992611,0.027923751892433294,424.960693359375,132.3940815196929,341878.5000000001,1314608.5,172378.50000000006,KuruYaprak
79.08775080497652,2.4304898656765634,0.7070996253333722,0.1801331556292704,0.990788743133658,0.03249603214020419,428.7279357910156,130.34907568607326,319466.7500000001,1259943.7500000005,132811.75000000006,KuruYaprak
96.66635625420231,2.6152479064541456,0.7002204513177905,0.1744751237141061,0.9883289845974028,0.03048497532384066,429.0950012207031,128.03559771033397,334969.2500000001,1794582.2500000005,138464.25000000006,KuruYaprak
107.31075956362562,4.1937982686945485,0.5558943086383592,0.1244189984506622,0.9884456450007422,0.01551085226100006,363.3631591796875,135.5654616675962,972999.0000000002,1154760.0000000005,262386.0000000001,KuruYaprak
88.58434247044154,2.5039594446846225,0.7020656436372699,0.17535243669024214,0.9886796858371583,0.030791821830847797,430.7056579589844,124.47768763748151,277788.75000000006,1686035.7500000005,114229.75000000004,KuruYaprak
74.97520821318521,2.6806283941271576,0.6564244407625768,0.16118596602678278,0.9916875118089457,0.026021577858793145,414.4179382324219,133.63304404712508,475027.7500000001,1050696.7500000002,183587.75000000006,KuruYaprak
81.02407996623634,2.8818980229958493,0.6263948129290273,0.15453521988744723,0.9915600487225328,0.023919985097992758,402.0917053222656,137.90020869288452,642024.2500000001,971655.2500000003,211893.25000000006,KuruYaprak
71.69588026540018,2.6205991235341237,0.6534064393078712,0.16654528393591753,0.9914968079060485,0.027773831929028995,414.2681884765625,129.2279534679297,581493.5000000002,775933.5000000001,204011.50000000006,KuruYaprak
78.20871996347257,2.8440612084293297,0.6354783556307384,0.16068064961762774,0.9914738263678229,0.025858097813067932,402.8966369628906,134.78854123654332,581031.7500000002,1022133.7500000002,220018.75000000006,KuruYaprak
142.24378026179116,4.747928125600465,0.5942025407946431,0.3894061414255998,0.9852770883238116,0.15168154654674698,405.5010070800781,138.1073936286147,1291571.7500000002,1473769.7500000005,428468.7500000001,KuruYaprak
135.67554870722225,4.567251477796772,0.6207843957333407,0.44471877873147936,0.9839464622055164,0.19781442808658486,419.6229248046875,129.07480881298113,1116246.5000000005,1483657.5000000005,458134.5000000001,KuruYaprak
103.39993291341924,3.8631854184686936,0.6742969271080349,0.45082148002600014,0.9820329482186325,0.2032569729031357,446.6575622558594,106.35676549400814,700985.7500000002,1416046.7500000005,324994.7500000001,KuruYaprak
92.14403524185136,2.9234807976497925,0.7515795979295874,0.5479993291938505,0.9795085762949995,0.3003155961762948,463.8638916015625,94.23749764190771,388154.0000000001,1478116.0000000005,170264.00000000006,KuruYaprak
74.07163472282137,2.4682731251200174,0.7848523714316502,0.5016367536753896,0.9815653860225604,0.251676748150936,470.41241455078125,88.97881444396491,256523.5000000001,1277615.5000000005,148817.5,KuruYaprak
105.78644339015909,3.7692023650757798,0.6030039877709588,0.1399903189644267,0.9862555160566172,0.019642159955088185,380.0455322265625,123.23433439543811,719836.0000000002,1400562.0000000005,338342.0000000001,KuruYaprak
107.768045207971,2.83145306192321,0.6846721089752956,0.15469722970378752,0.9789850167557528,0.023988970519704014,410.9169006347656,100.82986476149165,204345.25000000006,2035438.250000001,161365.25000000006,KuruYaprak
68.13266952614306,2.0779197303921544,0.7293277635985136,0.1574679596689137,0.9839439339247341,0.024865409762740754,418.50946044921875,91.36420391586407,132884.00000000006,1367190.0000000005,75443.00000000003,KuruYaprak
90.95288566897273,2.4893813977796917,0.7019816077677546,0.15287183194635778,0.9802611304318418,0.023427003344346387,416.0663757324219,95.23134402426241,193069.75000000006,1935275.7500000007,113939.75000000003,KuruYaprak
82.82819004409288,2.4309300058871464,0.692997080659977,0.14874731451308298,0.9829328146382238,0.022175862814561895,414.4903259277344,97.72766567344024,220228.75000000006,1345526.7500000005,124300.75000000004,KuruYaprak
97.64234374999901,2.4774721861783897,0.6976873366632395,0.14481316129658534,0.9797931870539026,0.021024721529334878,414.5191650390625,97.46069497783508,289233.5000000001,1925855.5000000005,132414.50000000006,KuruYaprak
88.87481649185271,2.5187622999566743,0.6820982236743227,0.13884682845048757,0.983896643137815,0.01932966414065944,407.9245300292969,104.21580780592704,379500.7500000001,1383944.7500000005,183093.75000000006,KuruYaprak
89.40483206578982,2.7228309724624236,0.6475610207446698,0.13045545183613247,0.9859011651614645,0.017059941873624303,399.274169921875,111.81044394003108,490006.5000000001,1207831.5000000005,234901.50000000006,KuruYaprak
83.41455512903522,2.649294862552782,0.6356386218612645,0.12643254745443672,0.9874856860862354,0.01602325407837937,396.9549560546875,114.655802642891,705322.5000000002,1003495.5000000003,252335.50000000006,KuruYaprak
125.95085285706861,4.524324028017871,0.4744663280475119,0.06062380028529233,0.986349845604011,0.0037007773216674324,342.7684631347656,134.98903762161262,1175635.2500000005,1389625.2500000005,294605.25000000006,KuruYaprak
114.41532385380128,4.466756355728357,0.47054592324738637,0.07941138561828753,0.9881918920269912,0.006342646880392951,347.1886291503906,138.44796740452006,1168086.2500000005,1167326.2500000005,225381.25000000006,KuruYaprak
86.61502101054715,2.9124810319347434,0.6724620054505608,0.15860574695732305,0.9822220958281045,0.025219728807029954,406.3753662109375,97.83507080892903,388417.0000000001,1429281.0000000005,203127.00000000006,KuruYaprak
117.0975069534504,4.521143235173761,0.4923892955065964,0.07791165444451797,0.9870566294829386,0.006106754772186526,342.74200439453125,133.6976503295717,1147586.5000000005,1292261.5000000005,240828.5000000001,KuruYaprak
119.90801081614774,4.281052765162217,0.5222088791068024,0.09199111904829417,0.9855007562018486,0.008516904757074091,357.11126708984375,127.7812113482989,957323.0000000002,1341412.0000000002,221016.0000000001,KuruYaprak
120.8873482554743,4.183411668588791,0.5520158416228774,0.09800108691751525,0.9850898168488802,0.009662922974554622,362.9001770019531,126.42615219885299,800064.2500000003,1723802.2500000005,250823.2500000001,KuruYaprak
89.41122334258272,2.924257632280752,0.6738081454471248,0.1446592903600706,0.9836588016362904,0.020988443507008604,424.17852783203125,103.74074557102215,437064.5000000002,1398682.5000000005,229931.50000000006,KuruYaprak
77.44737184916795,2.2924264255334403,0.7446492657616994,0.15924083366843547,0.981622051179122,0.025427643726481076,434.84130859375,90.99390832062006,242267.5000000001,1594727.5000000005,125350.50000000004,KuruYaprak
98.392111522611,2.4836960093473452,0.7378748801256114,0.15536537800733854,0.9768022121042244,0.024196390197300088,434.4666748046875,91.35726963073343,242564.50000000006,2043292.5000000005,157109.50000000006,KuruYaprak
75.95540582348069,2.326630022106851,0.7394054986993759,0.1585857866402447,0.9815064519198523,0.025209129562163358,436.00738525390625,89.8062614063853,225763.50000000006,1374823.5000000005,144253.50000000006,KuruYaprak
73.06517526311926,2.378535509179153,0.727444858276661,0.15313949214631556,0.9829555403172873,0.02351486227870379,433.22113037109375,91.79962357742343,233166.0000000001,1321268.0000000005,119353.00000000003,KuruYaprak
82.2536756596007,2.725892355103711,0.6909495734948543,0.1459024761880654,0.9830153958079835,0.02135015630124297,427.22491455078125,97.61060704919936,443906.5000000002,1195349.5000000005,154362.50000000006,KuruYaprak
95.07875441536689,3.2603532295269773,0.6343284026309015,0.13288416223859217,0.9843787672251492,0.01770089569988908,411.3308410644531,109.48353095407326,600488.2500000002,1284091.2500000005,269685.2500000001,KuruYaprak
62.26782018934918,2.4301628279988123,0.669129659844331,0.1281233241097536,0.9842221334646828,0.016487928080836864,369.2373352050781,88.158270908041,236439.75000000012,961855.7500000002,126191.75000000003,KuruYaprak
90.1018280979649,3.219045724600983,0.6245007359155352,0.12814275073756246,0.9852099278072413,0.016463033161008476,408.7433776855469,109.59045472213147,675915.2500000002,955356.2500000005,371625.2500000001,KuruYaprak
83.70937902489243,3.0984359080640718,0.6327885994925773,0.1341768156332615,0.9873011336478671,0.01804575617377548,405.5447082519531,114.05805909623459,757662.2500000002,900662.2500000001,303448.2500000001,KuruYaprak
80.7214533172315,3.022163801182112,0.6406756889749907,0.1419968625073656,0.9877693099698173,0.020207161707304966,407.2447814941406,114.16269600035703,787732.7500000002,766239.7500000002,270830.7500000001,KuruYaprak
79.21217290224655,3.099065473615781,0.6333756298906074,0.13859556168572337,0.988594715732665,0.01925216934911271,403.3025817871094,117.1493321179137,816878.2500000002,771821.2500000002,212753.25000000006,KuruYaprak
82.20688711973449,2.86498697916652,0.7057532699165001,0.46388244376785437,0.9908658434944835,0.21526355790944013,431.5632629394531,133.47089910110785,764630.2500000002,836852.2500000002,198368.25000000006,KuruYaprak
84.25787685325048,2.892999822784359,0.7085213963051324,0.4441754645771439,0.9903313196452268,0.19735256688487302,432.7672119140625,131.29238135175873,869089.0000000002,847267.0000000002,215955.00000000006,KuruYaprak
83.2206651137754,2.8101019289454756,0.7248928547214053,0.48532191167722566,0.9899379289635181,0.23556572505864942,437.2154541015625,127.8933374996358,734236.0000000002,878429.0000000003,238219.0000000001,KuruYaprak
100.95818233972113,3.3827420343135257,0.6777409744900843,0.49371215581632233,0.9891762676214902,0.243768702808039,423.49810791015625,135.82682151172,784939.5000000002,1149167.5000000005,269735.50000000006,KuruYaprak
94.1746211342961,2.9270780318866483,0.7360162403419344,0.5848556375939571,0.9881969369946604,0.34206714171025837,440.1912841796875,125.54964568820144,598269.0000000001,1227378.0000000005,207451.00000000006,KuruYaprak
85.99624851318937,2.6411238315790966,0.7622685400807756,0.5775466537362349,0.9879893886805846,0.3335956957058598,449.1028747558594,118.90464792741541,470601.2500000001,1223064.2500000005,174725.25000000006,KuruYaprak
66.31371379096933,2.228205813268944,0.6944688753428526,0.1290075174968877,0.9783592138217859,0.016723114157054905,351.9901123046875,77.75752909647117,173244.50000000006,1304659.5000000005,87467.50000000003,KuruYaprak
85.70198503880587,2.226659743247788,0.7191598659498613,0.16717843666733137,0.9852651066449312,0.028003891176259652,421.71630859375,106.98627160030426,215545.50000000006,1897067.5000000007,110771.50000000004,KuruYaprak
72.21666630622721,2.154777459390589,0.7154575025449337,0.16315948948354972,0.9876028223736426,0.02667610872525352,421.6913757324219,107.18931650229167,169303.75000000006,1379937.7500000005,83730.75000000001,KuruYaprak
109.08688292964075,2.3864405216742988,0.7206506912541675,0.16615194854441379,0.9818280058290496,0.027655696022787602,420.59716796875,109.1050989929295,195285.00000000003,1981404.0000000005,83552.00000000003,KuruYaprak
59.40989192858375,2.100236567666223,0.7053160888663859,0.1534360699814291,0.9912680275027353,0.02359268088291821,411.8038330078125,116.02626911380116,151446.00000000006,1121286.0000000002,71407.00000000001,KuruYaprak
72.16799246383395,2.5486405318866887,0.6822123526532339,0.1565798327326763,0.9915134238533884,0.02456525289523989,423.3039245605469,129.73676324732986,391292.2500000001,1021662.2500000003,156867.25000000006,KuruYaprak
77.28020256631837,2.751671802912244,0.6506384593571358,0.14633162012583412,0.9920019122550279,0.02145454724594258,410.2351989746094,138.3209637778439,498229.2500000002,1099968.2500000005,191664.25000000006,KuruYaprak
69.99745931552422,3.0859099715251834,0.6524033441806676,0.437231635292958,0.9934058734011034,0.19122439395748667,409.2912902832031,145.12107793975923,572416.2500000002,862687.2500000002,160903.25000000003,KuruYaprak
60.85131606533272,2.761737627955451,0.6495827198173661,0.40084328233085503,0.9942520133713394,0.160735001252085,408.5632019042969,144.98332524769754,559569.7500000002,663619.7500000002,115149.75,KuruYaprak
70.01378880718642,2.922703076941385,0.6812186442737898,0.44156628638060436,0.9930211248952051,0.19500114985649425,417.3441467285156,141.03581730402465,663093.7500000002,802464.7500000002,163923.75000000006,KuruYaprak
78.57505597306007,3.009772548418713,0.6834653836765439,0.5164216528767214,0.9916671844966835,0.2667027380435981,422.281005859375,136.67824059434906,583618.5000000002,962433.5000000002,197787.50000000006,KuruYaprak
71.15937638167952,2.3448648957131732,0.6887142928910467,0.12461091941871735,0.9777949815968062,0.015594413022071853,378.58782958984375,79.52634904518936,212556.50000000006,1224421.5000000005,122804.50000000004,KuruYaprak
71.33391180675449,2.5314578827853618,0.7437582993036356,0.5692167738355292,0.9911859686081921,0.3240171230997076,439.4294738769531,126.5097209243078,392062.2500000001,1275826.2500000005,113755.25000000004,KuruYaprak
60.948951635187626,1.8230066560937908,0.7537970838005889,0.17462390134687786,0.9881156943776618,0.03056948036985497,433.8702697753906,100.5768870347024,276919.7500000001,982754.7500000002,120980.75000000003,KuruYaprak
74.5458740778771,2.1158750390474252,0.7326538892095671,0.16923442259183563,0.9871040296167968,0.028710496242605136,429.72821044921875,106.79375444677711,218240.00000000006,1242381.0000000005,104665.00000000003,KuruYaprak
75.38527223603771,2.0770730758601865,0.736675922568565,0.1681181448716247,0.9872667909145668,0.02832991122726817,426.6283874511719,108.09277532101258,141658.25000000006,1344068.2500000005,78061.25000000003,KuruYaprak
114.53262712958751,2.3717739120770256,0.7408336741555457,0.1648434914212881,0.9820883553620625,0.027228153026868943,423.5067443847656,112.6618768111812,188318.25000000006,2166023.2500000005,96299.25000000004,KuruYaprak
110.92850230379936,2.40038295066794,0.7245364878743636,0.159736964320722,0.9834443259819869,0.025573962867141437,421.9778747558594,115.16076521571182,272504.2500000001,2288250.250000001,120524.25000000004,KuruYaprak
79.95621819131884,2.3641227833044125,0.6925464305033766,0.15320367192909706,0.9902139974699059,0.023520517471504264,407.87860107421875,127.101790007234,468619.0000000002,1145557.0000000005,135530.00000000003,KuruYaprak
87.80556549764125,2.9794671520567513,0.6753682736268476,0.3786125183205009,0.9908402662537169,0.14343323153395876,426.1015625,137.7629725168548,608126.0000000002,1068269.0000000005,203322.00000000006,KuruYaprak
97.69484329944731,3.489579548731043,0.6046654345922389,0.3102038622330187,0.991105510543844,0.09631833516687,402.0513916015625,147.50035591279547,896018.5000000002,1114499.5000000002,237134.50000000006,KuruYaprak
106.99033484716846,4.2498309844768265,0.6183201246417103,0.44690974419189694,0.9916415156023264,0.1997651305501295,389.5349426269531,159.32123686194154,846146.2500000002,1262237.2500000005,311859.2500000001,KuruYaprak
71.61138978998349,2.5923085171567926,0.6656810825667483,0.1271661041391088,0.9828984424255679,0.016229279596462465,378.6155090332031,90.74457011278024,389775.7500000001,1234152.7500000005,144913.75000000006,KuruYaprak
96.88856550064514,3.8487509461503193,0.4944960491476682,0.057613748712359775,0.991732924057791,0.003344018299298713,345.43670654296875,152.378237555628,679570.0000000002,1353761.0000000005,170337.00000000006,KuruYaprak
79.44066024785961,3.3686217890954175,0.56568962659699,0.09751778077361717,0.9877890728858403,0.009546903489551754,338.6254577636719,113.38085474789045,576079.7500000002,1036435.7500000002,188096.75000000006,KuruYaprak
111.67458388900556,4.589505073168791,0.47694853113637026,0.09108306293965066,0.9855288173361652,0.00831631203218467,347.8883972167969,123.51555079958807,789701.7500000002,1340958.7500000005,333232.7500000001,KuruYaprak
107.81794605740758,4.91123785022588,0.4432385549889678,0.08022467321239801,0.9866842733993935,0.0064543160193966205,344.9926452636719,126.66215871917319,775754.2500000002,1372766.2500000005,257085.2500000001,KuruYaprak
115.51765075331252,4.918905108611865,0.4456815978267662,0.0630994259287003,0.9855429650651863,0.004016651285979077,334.6633605957031,125.64275068820483,888787.2500000002,1501368.2500000005,214902.25000000006,KuruYaprak
79.72394050665325,3.4629771752449425,0.5821871961448767,0.12344610530121417,0.9885167919849527,0.015279792710086912,363.36016845703125,117.17643532294007,585549.0000000002,955810.0000000002,213032.00000000006,KuruYaprak
114.64254956026292,4.490356833909858,0.48772732085216575,0.06437317375161214,0.986158362714416,0.004179326893695659,331.20538330078125,127.91790711151278,996704.0000000003,1253084.0000000005,329409.0000000001,KuruYaprak
104.65680013395965,3.760839295583269,0.5441599377300544,0.11868525458507666,0.9886438048567134,0.014126710107153988,349.1367492675781,135.04581038410245,1028902.2500000003,1168028.2500000005,279236.2500000001,KuruYaprak
102.26976251621659,4.25909375300347,0.522863895669559,0.1064367738620089,0.9856276630057215,0.0113617967076985,365.7261657714844,118.55133379027413,671170.2500000002,1333514.2500000005,257837.25000000006,KuruYaprak
78.51618850021464,3.2725542910177636,0.6283192194968417,0.13776705550644955,0.98512487757561,0.019032463221356703,399.698974609375,101.98894361306968,507943.5000000001,1080721.5000000005,176598.50000000006,KuruYaprak
64.02300290152769,2.3988564494425186,0.6607768066003727,0.12178307851527781,0.9808974704939832,0.014905472687050482,347.6357116699219,81.12626809001364,287932.2500000001,1008010.2500000003,119133.25000000004,KuruYaprak
85.48489320513698,2.5767360360197884,0.7082248428691147,0.16129515136374692,0.9772722098819592,0.026082953416954893,416.5489196777344,85.86041288359782,306749.7500000001,1303510.7500000005,189675.75000000006,KuruYaprak
77.03586703431355,2.4264026155805554,0.7266917783988325,0.15995852537370964,0.9763536369032795,0.025648340004025973,439.759765625,79.8332499966223,277445.0000000001,1324132.0000000002,167329.00000000006,KuruYaprak
81.87986307850318,2.6742538777152993,0.7086833672117173,0.15479167723835363,0.9774685112148767,0.024016719228944192,435.9830322265625,84.37715231013496,278615.5000000001,1386197.5000000005,191593.50000000006,KuruYaprak
83.02055872440812,2.704557787269321,0.7009459824221911,0.15054503073830677,0.9759797016109195,0.022720923673872427,436.0292053222656,82.2726362067696,331888.7500000001,1269916.7500000005,166296.75000000006,KuruYaprak
92.29175070886001,3.14447336961734,0.6622223799309611,0.13907648895338418,0.9812135644391548,0.019402174393389978,420.79290771484375,98.26564202994308,409555.5000000002,1408493.5000000005,195577.50000000006,KuruYaprak
91.77666711721207,3.1590632208764475,0.6445921784150718,0.1315606426771055,0.9828725753148987,0.01736276813581867,418.5097961425781,102.65891809987556,660974.2500000002,1137272.2500000005,280483.2500000001,KuruYaprak
93.501401113752,3.281867641051366,0.631287967284075,0.12918008431078173,0.9839219327173634,0.016737516861948513,414.5050964355469,107.01302873652003,807514.7500000002,999164.7500000003,239845.7500000001,KuruYaprak
80.06094457359926,2.974778015066218,0.6362980553945846,0.12622851800907717,0.9874278195433894,0.015985743671244338,409.78857421875,112.09055580860851,858177.0000000002,857602.0000000002,158189.00000000006,KuruYaprak
86.73256028330172,3.4349207636484302,0.6061000060670096,0.2581074420007997,0.9899199999598302,0.06664350203210961,412.8128356933594,130.53731586473575,729280.7500000001,901888.7500000002,213808.75000000006,KuruYaprak
97.04691732145943,3.641444126057135,0.625400918617071,0.34842913467159775,0.9873427749677106,0.12142310687307578,421.207763671875,123.07648063293439,700028.5000000002,1199625.5000000005,310018.5000000001,KuruYaprak
84.09417142745504,2.5216122254661357,0.7107657173047393,0.15849959149142853,0.9772802694110376,0.025189801931224613,417.184814453125,85.1301934339188,302131.5000000001,1436490.5000000005,158477.50000000006,KuruYaprak
60.857217521504936,2.1178396680362974,0.6950641949430295,0.13686560021400926,0.9891870533957225,0.018813296589508696,428.8393859863281,105.433537117746,298828.2500000001,959508.2500000003,122538.25000000004,KuruYaprak
73.41241870614529,2.4372623360005026,0.6950958859933033,0.14399144210993195,0.9872380482834883,0.020809238149806137,430.6806335449219,106.51200896850011,319998.2500000001,1202270.2500000005,148607.25000000006,KuruYaprak
70.30822990256009,2.1032983558005967,0.7101476563401655,0.14842086294232365,0.9880196501641169,0.022097413618915852,397.3677978515625,107.63400337941827,174195.50000000006,1248685.5000000005,99985.50000000003,KuruYaprak
90.28598764597635,2.686549839604919,0.7278435979461298,0.1673425543037708,0.978789341066109,0.028067105381619904,431.88116455078125,91.37658427101745,400163.0000000001,1330781.0000000005,193067.00000000006,KuruYaprak
77.69943930819719,2.7527443170894506,0.695970632750536,0.1602065538100138,0.9851396909558479,0.02572686050568474,420.9544372558594,101.4900582203332,526134.7500000002,999990.7500000002,182566.75000000006,KuruYaprak
109.47204689903529,5.77074881055372,0.2517406696581987,0.02011729773843954,0.9665299399237209,0.0004069445677922774,211.39599609375,79.93057797088517,947764.5000000003,1384047.5000000005,106753.50000000003,KuruYaprak
235.05117376732392,9.306625216263326,0.16389497497569713,0.01656454065825921,0.9426375539461529,0.00027607536051515514,168.69827270507812,88.88130937283682,1985305.750000001,2996530.750000001,338354.7500000001,KuruYaprak
82.01921166138163,5.82200851235107,0.21215049092790988,0.02045709594477614,0.9724073439657303,0.0004205887276099099,182.70803833007812,76.36100324678152,917849.7500000003,787006.7500000002,108228.75000000003,KuruYaprak
173.28032307286423,7.902634203191164,0.1977118305535696,0.015927395407948235,0.9696379666524018,0.00025496001220854563,201.32550048828125,105.71833968877526,1654973.5000000005,1930746.5000000007,242673.5000000001,KuruYaprak
172.71249735679197,7.918530883554617,0.20549589440780358,0.016109304236412735,0.972524219197952,0.0002610616894758788,277.0129089355469,110.96794353403538,1946390.2500000005,1639958.2500000007,308923.2500000001,KuruYaprak
105.06476939458892,6.028030640258627,0.24925268228041952,0.0237484001764155,0.9753734000796939,0.0005681362811167222,143.5330810546875,91.49365715015566,1369270.0000000005,764418.0000000002,161445.00000000006,KuruYaprak
109.91934699094585,6.18801490111984,0.24379935075614317,0.022957938693677835,0.9743147362120339,0.0005309332439910676,146.47900390625,91.62209900300682,813500.5000000002,1473216.5000000005,162473.50000000006,KuruYaprak
146.52550962971745,7.084452073721693,0.20705100300350346,0.018276475976658445,0.9553604955755912,0.0003359592888176997,210.09475708007812,79.76612739329468,1122155.2500000005,1984667.2500000007,199044.2500000001,KuruYaprak
180.626273143158,7.668340406935053,0.21538676950801267,0.020715983692723594,0.9276100751331156,0.0004316299507349202,162.23599243164062,68.89415496937517,2033516.2500000007,1704799.2500000005,247796.25000000006,KuruYaprak
170.55472075044028,7.858934694588832,0.1951122290826691,0.015712347813024715,0.9655046499732229,0.00024844207768883467,237.9951171875,98.28339347988458,1816909.5000000007,1675773.5000000005,261723.5000000001,KuruYaprak
135.0786638702717,7.39876773656764,0.193645465233438,0.018557250930368287,0.9432436051090015,0.00034639023494855824,222.16281127929688,67.67124881147907,1083966.7500000005,1697202.7500000005,206015.7500000001,KuruYaprak
110.35228124398944,4.085490226114786,0.6216502742544368,0.22578624694246172,0.9830158238513118,0.05098688619113011,409.5783386230469,113.14948646267113,1544318.2500000005,616144.2500000002,274237.25000000006,KuruYaprak
175.19816934893151,7.104471852772955,0.35824452565294457,0.03617417064714051,0.9791057245481114,0.0013166080292200024,283.11859130859375,128.6401746339437,2678563.000000001,1031648.0000000003,205359.00000000006,KuruYaprak
101.16517427191242,4.277964815215155,0.5464477871893307,0.07864916525435467,0.9855728424988419,0.006220364564760939,366.31964111328125,117.67702652076845,1346720.0000000005,647496.0000000002,282848.0000000001,KuruYaprak
70.34500660803488,2.6775592019896104,0.6821904998080291,0.13522350951171772,0.9842407486269382,0.018337945575824494,393.60528564453125,93.81408775691195,1154516.5000000002,273601.5000000001,157818.50000000006,KuruYaprak
74.61297954813013,2.888567362913296,0.6525120472952888,0.10145369280297835,0.9826111514661646,0.010355073252497838,368.36981201171875,91.90656953528382,1292377.0000000005,289023.0000000001,156947.00000000006,KuruYaprak
102.44725086204845,4.802513291162003,0.4434253359079017,0.04062120771566731,0.984535188684781,0.0016614540353748237,275.7122497558594,114.53654960119925,1294113.2500000005,731659.2500000002,242908.25000000006,KuruYaprak
256.14826901011145,6.9863591076746445,0.3941985323830898,0.05516212550017562,0.9769926884863214,0.0030614433262938926,331.8860778808594,147.7547978666845,2436515.750000001,2300758.750000001,1276300.7500000005,KuruYaprak
213.08722734344536,5.942574745890766,0.4128642177668895,0.056709281848999454,0.9805300649236619,0.003236599312536375,332.43560791015625,146.6111572321419,2164136.000000001,1854832.0000000005,1086849.0000000005,KuruYaprak
154.30291611098772,4.330624384251107,0.4344757490351375,0.05164631423781398,0.9822322309229397,0.002680798788750472,325.96527099609375,130.66476521186155,1878713.5000000005,1123290.5000000005,535602.5000000002,KuruYaprak
137.36869333609386,3.773148894055043,0.44173912665100457,0.05009865336678316,0.9824025066127912,0.0025217913932465545,323.2041931152344,123.87649405818394,2142607.7500000005,581415.7500000001,429826.7500000001,KuruYaprak
191.17557818807438,5.1598139988224165,0.3980062477551966,0.04228121798811594,0.9805355895820124,0.0017973057815545493,325.13330078125,138.9249449971962,2368900.500000001,1223580.5000000005,764828.5000000002,KuruYaprak
221.3487071829324,5.982746134299141,0.4127472149022554,0.053554102003262,0.9797057846619733,0.002884286631060685,335.20733642578125,146.39540895823188,2538789.000000001,1806006.0000000007,830216.0000000002,KuruYaprak
187.4117974306813,8.08179701016447,0.17063631097247192,0.016131786566342128,0.9405064504405007,0.00026140508158789273,289.48406982421875,77.75464416262513,2168077.500000001,1635480.5000000005,413800.5000000001,Oak
181.27398776913378,8.408734020569064,0.16323747712842393,0.0208952593500458,0.8948691108713561,0.00043829666492394535,294.4460144042969,56.6015204449791,2166673.250000001,1658928.2500000005,368571.2500000001,Oak
1040.0500890883263,21.333151101739276,0.077501770065425,0.010398903054084238,0.8005877145551579,0.00010852923982444412,307.6480407714844,94.80053625063267,9507620.750000004,11302489.750000004,3132965.750000001,Oak
552.4453105926957,14.158191455810165,0.15478877301029798,0.018825682081482373,0.7257793067569307,0.00035668705973471377,290.7408142089844,56.88020753199625,6826044.250000002,3984309.2500000014,2251276.250000001,Oak
460.59415963812455,13.633505953238826,0.11231875438418505,0.012093162077479081,0.9147727975478909,0.00014709683232381793,268.05645751953125,100.88367396368837,6201957.000000002,3494559.0000000014,831699.0000000003,Oak
615.2205190162516,13.045771022564885,0.19419841283278055,0.021480381081226026,0.8563484369766161,0.0004640465116561949,169.3065185546875,87.80631204698015,6993469.500000002,5326471.500000002,1814284.500000001,Oak
734.5933229857675,18.39321764765969,0.08764483302496678,0.011762578950130085,0.8017629684022034,0.0001387990306580117,287.0146789550781,79.8137295720795,8553883.250000004,5979147.250000002,2519442.250000001,Oak
323.8716216269063,9.709387510212444,0.2257450834902523,0.019921804336188058,0.9170393613100722,0.00040066543446391355,312.42315673828125,85.7208626864136,3604278.000000001,2611628.000000001,1142936.0000000005,Oak
718.9698909674429,16.139674464148605,0.15517230117650815,0.015852618529162376,0.7361369423363432,0.0002527485343164814,297.07318115234375,66.57352244041479,7786006.000000003,5994489.000000002,3101400.000000001,Oak
220.08857090723,9.438939034866346,0.15381858640532375,0.015328297755685996,0.9243843973986688,0.00023656510596009863,286.6535339355469,74.32116968365115,2837666.250000001,1690295.2500000005,414055.2500000001,Oak
205.33973739068995,7.903261065456025,0.22183015767819322,0.02832942097451514,0.9538856878062951,0.0008042084811359597,227.6812744140625,92.76261519607208,2175709.500000001,2058994.5000000007,306584.5000000001,Oak
329.93630825584717,11.58660021085616,0.12217775856429233,0.013502075960603658,0.9226363181564237,0.00018308520629459226,274.3113708496094,90.01524911897346,3976390.7500000014,2807423.750000001,775752.7500000002,Oak
583.7846078731905,13.905848742070198,0.14910177964945787,0.013657733384579146,0.8508569962968686,0.00018781338667539464,287.1618347167969,83.67580674164583,7208827.250000002,4398472.250000002,1957143.250000001,Oak
357.34792578275403,11.453365727724693,0.13138012906119306,0.01705077311193813,0.8867672079382027,0.0002917100536777257,318.3350830078125,76.46361056009381,4252634.000000002,3052615.000000001,992729.0000000005,Oak
110.45938570802163,6.698450220468054,0.1720716553490593,0.024868927940630517,0.9342847243068411,0.000620368871602156,316.9249572753906,56.76373366017766,1391674.2500000005,925386.2500000003,254973.2500000001,Oak
212.42692152658373,9.4582622068435,0.14197424445938894,0.013682934292669676,0.940755812593033,0.00018821512967511406,283.87750244140625,83.03347421255553,2479948.500000001,1989074.500000001,341167.5000000001,Oak
138.75812813881862,6.835859570237437,0.2350386391908605,0.020573856422140498,0.9640824955918008,0.00042663161047831776,315.993896484375,86.80705206202012,1671282.5000000007,1215457.5000000005,271068.5000000001,Oak
552.7378839268696,14.685876135380552,0.12869378370496665,0.013704692493357108,0.8005891789269257,0.00018901531071276187,301.4013366699219,69.05473887948814,6995049.250000003,3915998.2500000014,1762916.2500000007,Oak
793.8684604178892,18.08643066969475,0.10621561246520482,0.011842346184065456,0.7588476029120577,0.00014091173384897095,289.649169921875,73.92718776680097,9449257.000000004,6112903.000000002,2906134.000000001,Oak
177.70975515727434,7.366163149389685,0.21106458901905056,0.018983416418257775,0.9357752208352983,0.00036316753846363725,308.2031555175781,72.69717914166282,2241086.750000001,1442768.7500000005,346027.7500000001,Oak
209.10592153559412,8.406784244641601,0.18168063031142706,0.01793176417771971,0.9189744681387132,0.00032378645114662446,291.956298828125,69.80008475397904,2756946.500000001,1466493.5000000005,566831.5000000002,Oak
183.24649985883076,8.393260930291175,0.16199154462310228,0.01622073107808626,0.9442724795633384,0.00026459658552427167,292.43426513671875,79.51862072166858,2427746.500000001,1409815.5000000005,319196.50000000006,Oak
314.1275763828902,10.918204987264438,0.14915148356682573,0.015239228932000273,0.8900519702282407,0.0002336600873334178,277.9972229003906,72.67939047812054,3877271.750000001,2528906.750000001,659322.7500000002,Oak
595.6793094903525,15.010269277441116,0.12356422743251758,0.014066373407453297,0.8059032062662581,0.00019881246210663004,304.6850280761719,72.75131647546172,6575148.750000002,4996641.750000002,2420453.750000001,Oak
1407.1937148572897,24.922846140907374,0.08382175529240533,0.009285952811736374,0.6964613831714064,8.663869066282564e-05,287.21624755859375,85.44385914795146,17831249.000000004,8847400.000000002,5986053.000000002,Oak
223.79701225191047,7.795471468305621,0.24860372812117337,0.02552379556716541,0.9141619060495303,0.0006564491461794062,268.78179931640625,70.02299641990363,2618366.000000001,1924132.0000000005,656855.0000000002,Oak
592.7409600724725,13.83450609441081,0.15790415972691885,0.014309048763608879,0.8624391699171519,0.0002065403265697127,270.2008056640625,88.34415186798039,8378689.000000003,3862987.0000000014,1310546.0000000005,Oak
451.08952007643313,13.89547866205291,0.11152962106505782,0.014129933852909365,0.8530879845098966,0.0002004875293282742,295.6601867675781,74.29499120238842,5274814.750000002,3945418.7500000014,1267055.7500000005,Oak
362.62433520162375,11.623689926951279,0.12308481763174985,0.012497750481298425,0.9383324261495057,0.00015702615731655342,257.1438293457031,106.20623332152806,4979674.250000002,2513597.250000001,683396.2500000002,Oak
152.5445091731578,7.035537803969663,0.19098886953461935,0.01782003557527149,0.9590747099197023,0.0003184844295366814,296.74676513671875,85.2066795662728,1796810.0000000005,1343267.0000000005,362458.0000000001,Oak
190.75922169358387,8.287651083717751,0.16468466256727501,0.016386087011128658,0.9403512783491474,0.0002700555535078747,293.8398742675781,78.30262119398336,2536355.250000001,1427023.2500000005,359233.2500000001,Oak
130.43930687716565,7.05843008097843,0.18853506949270496,0.01725543017370032,0.9618145229158963,0.0003003218669484462,292.0192565917969,81.60673682678828,1843461.2500000007,884746.2500000005,147444.25000000006,Oak
507.4475972132325,13.913685556636686,0.11868542632622286,0.01125049347341963,0.9059945150786635,0.00012717970387561838,261.7818603515625,100.51309448837469,6142706.000000002,4497489.000000002,924656.0000000003,Oak
499.273512336013,14.711017952830387,0.09663821045029755,0.010992396288036558,0.8842858772376516,0.00012133694549640706,278.5250549316406,89.17247474971022,6332848.250000002,3751293.2500000014,1253958.2500000005,Oak
166.12463568700005,7.600603914359921,0.20978011898931198,0.028835420840376824,0.8862686277270148,0.0008389545026041534,291.7858581542969,52.03753447954995,2034577.7500000007,1427181.7500000005,283750.7500000001,Oak
336.4229853902392,11.551151330017301,0.13448772336678128,0.013553212331242227,0.9256900322067165,0.00018434184086407163,290.16436767578125,92.59360032110948,3914970.5000000014,2568458.500000001,1369108.5000000005,Oak
157.91159094459164,7.186884341359085,0.1951193923422395,0.019087722714324032,0.9562812220772441,0.00036706182240402565,288.5341796875,83.94562254893265,1886937.0000000005,1396992.0000000005,288008.0000000001,Oak
690.2352116073436,14.572511503988533,0.18085077592651552,0.01642573123543967,0.8407472800290705,0.00027199543431354685,264.3625793457031,87.86433716153691,8214291.250000004,5110210.250000002,2737179.250000001,Oak
793.9183074418775,17.743503189879174,0.13539395376256003,0.013872832174041312,0.7959152859031358,0.00019360428000473402,277.81304931640625,81.52584779845199,9235656.500000004,6184947.500000002,3136713.500000001,Oak
263.76274092296774,10.23882349937502,0.14579913476446027,0.018373686699312313,0.9063829978270009,0.00033897372151705325,293.2421569824219,72.57689214178114,3372110.750000001,2263642.750000001,490607.7500000002,Oak
670.5193976175137,14.974627727316054,0.1581696022001808,0.018013956379862348,0.8062537905539282,0.00032776082299572145,286.01239013671875,77.44310714352251,8101652.000000003,5157412.000000002,1982365.0000000005,Oak
276.98161585989004,10.471591800629461,0.13879293768380135,0.013207541873469692,0.932237086338819,0.00017630573855169062,283.5776672363281,88.21980021128454,3791346.2500000014,1969860.250000001,446322.2500000002,Oak
605.7948098537818,16.83727501141347,0.08162936507710278,0.010156091572246295,0.8546481074796449,0.00010367685112639387,301.82452392578125,86.60607227992043,7351840.500000002,4763311.500000002,1757520.5000000007,Oak
216.04447306925454,8.716950692041513,0.1776586079279941,0.01657549593416297,0.9443160940174598,0.0002762502879174265,279.9512939453125,86.42875149647696,2495453.000000001,2075895.0000000007,306035.0000000001,Oak
788.9057907415552,18.390140721117028,0.08999005113706175,0.010668871661042339,0.8091080860257988,0.00011431812028271132,298.48919677734375,84.54930404036632,9556101.500000004,6306277.500000002,2363840.500000001,Oak
200.13068804666784,8.303699178200674,0.18097751431564546,0.017627620252684006,0.9411611594641786,0.00031365275840205414,286.6216125488281,80.75364121750201,2837692.750000001,1396603.7500000005,355248.7500000001,Oak
493.26914726312066,13.215270959487036,0.14274112823270324,0.0165354936201561,0.8535137593761768,0.00027512219165429333,241.650390625,77.66009796863383,6738579.500000002,3344865.5000000014,1323970.5000000005,Oak
223.60993635260536,9.131261804353885,0.15510028639144635,0.017219382210483736,0.9393466204768455,0.00029900000973225786,289.43878173828125,84.06221341947096,3323216.000000001,1443352.0000000005,342629.0000000001,Oak
500.8769233738499,13.150471228013267,0.17318610968420273,0.020187026852129218,0.814955836665413,0.00041005577703063806,271.9708251953125,68.78191932781945,6105323.500000002,4119006.5000000014,1310219.5000000005,Oak
149.36086398561537,6.919600108732428,0.24496831573129246,0.021709862118415316,0.9462678098999415,0.000477919972215266,242.25119018554688,73.08995762293026,2655390.750000001,549377.7500000002,155575.75000000006,Oak
323.70552141905375,10.503921553609029,0.14730690172149663,0.01351068776844784,0.9412411067226093,0.00018364741552718818,274.7201843261719,102.77878865150207,4378818.250000002,2479343.250000001,583479.2500000002,Oak
146.45996819132327,7.856163554882768,0.1575703273065043,0.017341258431719648,0.9378805206105639,0.00030237121419952927,285.45709228515625,67.20787497012738,1795419.5000000007,1160217.5000000005,347323.5000000001,Oak
487.0694159548128,12.72027190563717,0.17322815489476345,0.014205196954105624,0.8973768417150817,0.00020349388033475872,282.1239318847656,94.02581744440268,6241362.250000002,3490448.2500000014,1383513.2500000005,Oak
377.2160780709713,11.901807267637565,0.16056082087183998,0.01843873007786763,0.8790324574741356,0.00034191570733219567,210.04324340820312,75.71928104663675,4293318.250000002,3251361.250000001,1202705.2500000005,Oak
527.365668342712,14.265099871443438,0.11849905998691626,0.013317536231134608,0.8385007491162966,0.00017822216590733078,296.08758544921875,76.05764765156155,6299099.000000002,4188848.000000002,1857877.0000000007,Oak
204.33776993825057,8.75442876537873,0.1542082612694818,0.015391751093923895,0.947795763767863,0.0002383783264400269,303.37786865234375,86.80969896938144,2602451.500000001,1629813.5000000005,402123.5000000001,Oak
72.67346418745284,4.893637708453522,0.2780877065160279,0.022321091734537165,0.9736571757394517,0.0005041342803518235,299.6016540527344,73.67631835800753,1014424.7500000002,510209.7500000002,91917.75000000003,Oak
368.76573559450026,13.03968353517848,0.10264721155124384,0.011071713694729212,0.9265726469999538,0.00012315130712843849,244.24655151367188,97.68833045108732,4795775.250000002,2801729.250000001,825750.2500000002,Oak
496.51879724745766,13.537315185264985,0.12353215669302448,0.013226286852128356,0.9062623851393776,0.00017572060145322406,306.2638854980469,99.46338899100392,6428217.750000003,3752301.7500000014,1135625.7500000005,Oak
993.0140883316215,17.597956164698928,0.20303666917751223,0.0272192349203679,0.7940170850265258,0.0007465576990680261,198.85147094726562,90.78737013596913,12015082.750000004,7413745.750000003,3713481.7500000014,Oak
278.67754464929726,10.854013195044967,0.12218153172094279,0.01312096215064825,0.9303093113687171,0.00017332257701765317,292.3282165527344,87.31885852743473,3820459.7500000014,2047002.7500000007,498298.7500000002,Oak
865.0715215151529,17.3029086018596,0.14667140413455373,0.015781288196011482,0.9230364157758579,0.00025054845096609537,238.612548828125,145.95714409577656,10895490.500000004,6695739.500000002,1966272.5000000007,Oak
234.5266765186525,9.182642763600525,0.14861276725553307,0.014943334790930156,0.9442793961796417,0.00022497398897416434,305.2527160644531,89.97472429471571,3136395.7500000014,1846619.7500000005,380492.7500000001,Oak
213.67961865629184,9.562635945309541,0.1385794730240858,0.013832781304768014,0.9392028595920742,0.00019231870612115444,291.5391845703125,82.01470846743979,2216487.000000001,2296742.000000001,287551.0000000001,Oak
205.5818067870642,7.936325872260747,0.20419440566476293,0.018919267013626388,0.9325228365759369,0.00036019791250021735,275.2413024902344,76.2980038525427,2366324.250000001,1929368.2500000005,366305.2500000001,Oak
790.7528720324619,15.584595528162875,0.16426260741297294,0.01650699532430531,0.7674203587116047,0.00027494392305587,260.89404296875,75.44844854180464,9511030.000000004,6216779.000000003,2676033.000000001,Oak
307.56851823818374,11.099416600586139,0.14533878988809434,0.021869892672668746,0.8009921936049961,0.0004808612062344393,302.5017395019531,51.755894835007695,4088407.2500000014,2207492.250000001,643636.2500000002,Oak
379.58855022707814,12.782071408832717,0.11900079675677169,0.01236750976426702,0.9158257795097262,0.00015386307300229915,280.1929931640625,92.30054104750452,4833892.000000002,2969933.000000001,722701.0000000002,Oak
152.95095935158082,6.620249618536342,0.2482704042477985,0.028300312766018576,0.8949321012949694,0.000809486278979694,276.4228210449219,52.14688794351081,1997671.2500000005,1129558.2500000002,402111.2500000001,Oak
492.8864131283747,13.939026396097248,0.10327344927382169,0.010876158635895368,0.8975782613342421,0.00011934756332873856,282.6765441894531,94.70991126070956,6986018.250000002,2959557.250000001,1030666.2500000003,Oak
442.898781853756,12.264025479983522,0.16859691666594695,0.01733632866359666,0.8352436841968127,0.0003025065386837224,279.8868408203125,68.98815758974149,5101793.500000002,3477949.500000001,1585720.5000000005,Oak
383.34586993284023,12.472350373053189,0.12527198253772723,0.013916681347603658,0.9099810692810524,0.00019449803898934393,306.1340637207031,89.46771076468038,4833700.750000002,3202292.750000001,632459.7500000002,Oak
302.32809152430633,11.194550938941694,0.1304096061169157,0.014343106395178197,0.8875879654378483,0.00020661612218521042,290.0751953125,70.48420305004893,3957696.5000000014,2367365.500000001,680748.5000000002,Oak
445.730204533759,12.19094009815991,0.167596551627086,0.01984406288047198,0.8670734546698399,0.00039722241028264767,237.2332763671875,78.03310627490073,6140396.000000002,3037344.000000001,1134916.0000000005,Oak
307.2291865808932,11.334199046039851,0.1274180911499536,0.013093224337676642,0.9195213803645772,0.00017290860947241556,267.869873046875,85.02646541593072,4375755.500000002,2082422.5000000007,427833.5000000002,Oak
356.7239737871851,9.960057024342522,0.21883268009532497,0.027840484988388807,0.9042589085852892,0.0007798535463971845,228.00469970703125,83.68929179363731,4523187.000000002,2702055.000000001,978256.0000000002,Oak
249.5210648398408,8.7189917489665,0.1745352088236538,0.019811199280448423,0.9450014526062991,0.00039564747096639544,292.3528137207031,93.4124302731395,3356542.250000001,1959245.2500000007,443377.2500000001,Oak
317.141776239909,12.398831849528769,0.10053849284384697,0.011706673459474898,0.9170464954109974,0.00013796965561860955,263.52972412109375,84.95556377558681,4200855.500000002,2444310.500000001,475395.5000000001,Oak
411.0479388186037,12.63110929390099,0.13236813486836924,0.01680695402768195,0.8841223730892053,0.00028389240597491807,303.50238037109375,80.73058334881333,5357913.500000002,3094430.500000001,1026497.5000000005,Oak
84.78204024594048,5.784185814951073,0.24921349566530468,0.022507518965845526,0.9809509800942382,0.0005127598576148297,232.97787475585938,93.86737890429893,1258329.7500000005,615228.7500000002,38029.750000000015,Oak
98.80732352040249,6.068526062692257,0.20943558097741188,0.019710453557532523,0.9643531016009047,0.0003904829099530694,265.71392822265625,73.62743584546757,1207637.5000000005,886366.5000000002,153600.50000000006,Oak
412.9113058529251,13.425244392180726,0.11339665094801316,0.013834651242681482,0.8232021656505039,0.00019221920238734694,316.5159606933594,63.960586607512965,5187116.250000002,3299932.2500000014,1077611.2500000005,Oak
474.09088805989245,11.912853259563509,0.18273522544664894,0.0180404858878935,0.8468165097170051,0.00032769633033579516,296.2393493652344,74.21509022286904,5625501.250000002,3684439.2500000014,1746078.2500000005,Oak
253.67647982448437,10.111041982050203,0.14853300370978118,0.015856312274093565,0.9392445558278114,0.0002527684644988304,248.34060668945312,89.52406797054206,3491280.250000001,1692097.2500000005,526464.2500000002,Oak
253.88918919406922,9.074807015330741,0.20804538301906508,0.019419509839888764,0.8918082484089003,0.0003809482178124878,309.0908203125,65.8243504693206,3432550.5000000014,1928493.5000000005,542652.5000000001,Oak
940.9124086739635,17.730910031598338,0.1260772252391944,0.015573724693463261,0.7445986443787699,0.00024374364135734835,302.9210205078125,77.84397926271922,9133321.000000004,8324161.000000003,4330029.000000002,Oak
327.1720537323464,10.758737129349171,0.16020124077325612,0.01437806291689126,0.9321296638862915,0.00020777028914659919,294.897705078125,95.83092664208664,4334129.000000002,2579443.000000001,730811.0000000002,Oak
202.59235529904916,9.462527858876323,0.14424848044944588,0.01575072501142989,0.9162279030312198,0.00024956511348580554,273.1285705566406,67.47588518537896,2570511.250000001,1638141.2500000005,418141.2500000002,Oak
657.3874843509664,15.506601847846351,0.12245093212192962,0.013746427393152759,0.8900120869602571,0.00019012680789416746,283.6283874511719,105.14242650567492,8122783.250000002,5529519.250000002,1305049.2500000005,Oak
173.09892554847613,7.388151417123353,0.21089525601793074,0.020277514210908447,0.9358265608090076,0.00041342876763074616,303.0675354003906,71.84584285555407,2228777.750000001,1460536.7500000005,306705.7500000001,Oak
159.32919550173335,7.875226505430606,0.17424125617818242,0.019342807393929677,0.9201524381098631,0.00037642825806281514,292.8688659667969,61.35635621539447,2168334.250000001,1141384.2500000005,307363.2500000001,Oak
236.9096785641378,10.20195755538716,0.13362355905086923,0.016594050143300836,0.8811152644849066,0.0002770334822922131,291.1642150878906,60.534987456664616,3300167.250000001,1685887.2500000005,392050.2500000001,Oak
284.54495802396855,10.733350679426195,0.14863536166934763,0.014860896190494391,0.9083311201065785,0.00022185009343588877,264.25421142578125,76.21609081653125,3575776.500000001,2213734.500000001,858761.5000000003,Oak
458.34993310867276,13.319987054257936,0.1216277954150134,0.012065194183318282,0.894138744446158,0.0001464284259015438,271.23284912109375,89.69336213713136,5744586.000000002,3810972.0000000014,718293.0000000002,Oak
257.5712388865109,8.29570366565785,0.23469108962007584,0.02108459783230087,0.9089537269617144,0.0004492441904521689,229.76052856445312,72.86479214822224,3386784.250000001,2007263.2500000007,613918.2500000002,Oak
622.8438056727153,16.359965442978577,0.09450982287887005,0.0106282652143187,0.846804472102867,0.00011341258163059211,270.240966796875,85.31172023563558,7310491.500000003,5515464.500000002,1383188.5000000005,Oak
214.75531015715814,9.083335285707403,0.15404487023904256,0.01556212495833838,0.93137873828194,0.00024391382909021972,310.894287109375,77.36638731428562,2810331.500000001,1753846.5000000005,301716.5000000001,Oak
369.689272680583,12.247668279627803,0.13783788530943816,0.013770405583664746,0.8857255892343809,0.0001907318353372859,294.4222106933594,77.10965960066872,4661687.750000002,2984891.750000001,816417.7500000002,Oak
636.7414639802759,16.173318465254336,0.10298634583526918,0.01276057160752883,0.9093027370874098,0.0001636626257957591,188.1160888671875,114.50337745955116,8386999.000000003,4975918.000000002,1411498.0000000005,Oak
204.1120730458267,7.965608585039347,0.23833515342692696,0.02425145516926397,0.9321828193757599,0.0005929829369380764,279.9818115234375,75.77525007652427,2539394.000000001,1601601.0000000005,521444.0000000002,Oak
220.87606095011895,9.476320105247892,0.14045352634929734,0.01517571376244932,0.9443423125598103,0.00023181147572233482,294.5829162597656,87.43450328678132,2959072.250000001,1660455.2500000005,412040.2500000001,Oak
659.8086799848662,16.39654126417689,0.11428957260880303,0.012408452107982575,0.8377538466740957,0.00015508385499654544,306.50164794921875,84.94530206543143,8378138.000000004,4809772.000000002,1922963.000000001,Oak
579.6243050449513,14.722007100634267,0.14493997680916776,0.014257565002252025,0.7975697994260232,0.00020468968853479518,306.52764892578125,70.03231456924422,7040365.500000002,4308687.500000002,2240842.500000001,Oak
683.0311597404151,13.687516520090165,0.21548299035180118,0.025547779207767206,0.8996225955130052,0.0006584421629052374,153.0787353515625,112.3905093089574,8618148.500000004,4839474.500000001,2393765.500000001,Oak
236.95827835148052,9.72028310926073,0.1532771633813611,0.01503738845699152,0.9249794396155347,0.00022761450877564597,284.1517639160156,77.51297573181351,3091909.250000001,1850986.2500000005,403919.2500000001,Oak
527.4627388354472,13.895273737865372,0.16206544283540184,0.015265697474787735,0.9010874337632742,0.00023452184305440123,275.396728515625,99.47603307475414,6036697.000000002,4250139.000000002,2039914.000000001,Oak
339.5124411734721,11.541052044285731,0.13272808371412712,0.013951710239987175,0.8974536810028848,0.00019651077810667883,315.41192626953125,78.43618315067683,5098860.500000002,2054152.5000000007,610369.5000000002,Oak
764.8207870172171,14.44516556132476,0.21511329513539237,0.02757507884024385,0.9153596794311253,0.0007650846407344326,163.58612060546875,130.39309627859242,10067662.500000004,4953649.500000002,2654688.500000001,Oak
280.10174914699104,9.588489913735488,0.16827185606685896,0.017437671085788448,0.9291774585235423,0.0003054953335145849,235.83102416992188,86.8221212933369,3413561.7500000014,2342264.750000001,560797.7500000002,Oak
129.42471857278738,6.977867031310108,0.17671359381722973,0.01930416895340882,0.9434967173704029,0.00037560349641880105,298.52423095703125,66.38590261814007,1848482.5000000007,933591.5000000003,196452.5000000001,Oak
224.2663645893437,9.19550809784686,0.15414384243589674,0.017648101682432877,0.9355276106814587,0.000313264987302214,300.1744079589844,81.56863092800036,2905569.750000001,1726426.7500000005,372341.7500000001,Oak
428.3173878887105,12.694354830474337,0.15370761904754385,0.01645163411086159,0.9205288608159381,0.00027202741080235713,231.79168701171875,100.95444345740619,5197944.500000002,3540741.500000001,1058717.5000000005,Oak
517.3121733227865,14.021165206891498,0.1428808616044529,0.014946377284789208,0.8133029255905525,0.0002244380480498193,278.2699890136719,69.40637859025317,5925431.750000002,4088745.7500000014,2181008.750000001,Oak
437.5247989805679,11.458340136606102,0.19909048572321836,0.016222142454130565,0.8789443027706377,0.00026544204908861843,286.17486572265625,81.49224966807222,5375832.000000002,3602285.000000001,1156383.0000000002,Oak
180.36076878484903,7.998181258410274,0.1739916145594893,0.017515544622259217,0.9408270157341994,0.00030863804501940164,269.2578125,76.53081315750428,2410790.500000001,1423638.5000000005,295257.5000000001,Oak
386.69248555243763,11.508084690983994,0.15933950627357063,0.014975501830457103,0.8909835389605476,0.0002255420700117517,287.9217224121094,81.00436214766641,4284719.750000002,3653750.7500000014,1079387.7500000002,Oak
727.9537358077847,17.05508829236418,0.14050701346360622,0.013857636678719963,0.8114581070019998,0.00019367217719206144,263.5262756347656,81.89448287633441,9516420.250000004,4678340.250000002,2574011.250000001,Oak
244.4952714701161,9.1726728601981,0.16146580611317998,0.01470095317988854,0.9406383989712178,0.00021718986723935757,275.049072265625,88.94411129716259,3150999.500000001,1964984.500000001,410808.5000000001,Oak
124.84980872742078,5.9306707456268155,0.25785968657960817,0.02084206726940944,0.9571614777602757,0.00043711136537497155,225.20565795898438,75.26297555796002,1563049.7500000005,1131430.7500000005,162250.75000000006,Oak
480.7236554900671,14.511209886221044,0.10437855614046798,0.011687069636569285,0.9042231935586692,0.00013790906844258222,282.6742248535156,96.76551995605388,6560671.750000002,3610311.750000001,841988.7500000002,Oak
565.922163005218,13.734601550485039,0.14696739963008246,0.014828125994725104,0.8516800440375601,0.00022176213594793335,285.3503112792969,82.62796643573803,7001750.250000002,4636227.250000002,1551608.2500000005,Oak
217.22116595781293,9.3756329897155,0.1461209485617656,0.016098186136119144,0.9145220558633873,0.00026098633983727545,304.2411804199219,69.21813572207799,3194615.7500000014,1468319.7500000005,338749.7500000001,Oak
344.26027834850265,10.320926386486404,0.16493862832894474,0.01981416946421638,0.946415650441459,0.0003940288756297098,228.14459228515625,111.19110151978172,4350315.500000002,2775923.500000001,625626.5000000002,Oak
771.6068700290251,17.33768651179909,0.13085933575214603,0.014103886368325975,0.807497713053365,0.00020058804532691962,244.83334350585938,83.3591792093101,9050896.250000004,6437709.250000002,2305558.250000001,Oak
719.4331844123528,14.795401017638415,0.17528390504871816,0.02152997384680895,0.876767024728192,0.0004661884850600652,222.89309692382812,103.46722645373369,9381959.750000004,5162181.750000002,2130330.750000001,Oak
841.7285018983227,17.111287125143726,0.11187022428012093,0.010086957641925484,0.8851694558191857,0.00010233538272431669,260.2221984863281,116.02739927005481,11343198.250000004,6104642.250000002,2112810.250000001,Oak
238.89469846333802,8.051387597318428,0.23174649203655268,0.020615539040989984,0.9466407201903586,0.0004269696866484357,301.4678039550781,92.86583088945427,3004173.250000001,1941277.2500000007,539529.2500000002,Oak
650.0268590956771,15.931421823937946,0.14284285354128926,0.017402773145578962,0.7613013156806663,0.0003050051401778775,301.2149353027344,67.4867359179679,7934525.750000003,4703140.750000002,2264705.750000001,Oak
527.642745128077,14.99611693819658,0.09888858926808772,0.011261220361703184,0.8786190887592231,0.0001274651865008658,277.5115661621094,89.16794746496915,6428164.750000002,4397544.750000002,1291836.7500000005,Oak
346.988661947937,10.492886825379616,0.16446669394135208,0.015649857952485025,0.9070346381891238,0.00024644038648258997,296.4146728515625,83.69205785286249,4654361.500000002,2439117.500000001,797638.5000000002,Oak
634.3622311731265,16.016528889128708,0.1385347997203619,0.014286293885152304,0.8624863938273692,0.0002058867892338644,258.5308532714844,91.33136477548335,7432860.750000003,5320631.750000002,1891719.7500000007,Oak
448.24708549600865,12.206454819060097,0.19636270844025216,0.023126991435970697,0.831593275928817,0.0005378252516048361,241.45843505859375,68.60103788086745,4968199.000000002,3653399.000000001,1757875.0000000005,Oak
229.07900911008232,9.743759296304209,0.14129299090823913,0.013456561490983392,0.9411506516488495,0.0001820253796051498,279.8998718261719,86.4194668384433,2695489.750000001,2041936.7500000005,488187.7500000002,Oak
621.9845043823982,14.616518151072246,0.13368733868304086,0.014752492015107949,0.9262416170570141,0.00021921409058992325,220.37814331054688,126.5611331579162,9295267.250000004,4113255.250000002,748768.2500000002,Oak
166.064695114262,8.21503714016238,0.16250063546783014,0.01871939717000879,0.918619286964896,0.0003541741219828744,311.6014709472656,62.1743933240546,2351525.750000001,1190011.7500000005,217602.75000000006,Oak
307.72758242022655,11.50709745049969,0.1198111872009947,0.013212843397720676,0.9174601605836578,0.00017592577084486204,287.6553955078125,83.88907524085273,4292096.500000002,2250083.500000001,455360.5000000002,Oak
208.88150673720625,8.216552392709795,0.20742350911294752,0.021425882602608082,0.9463328877979094,0.0004628077070185832,255.07223510742188,86.78225267096306,2485153.750000001,1930536.7500000007,380900.7500000002,Oak
745.024266162784,14.52624031322227,0.16884521094265043,0.01761628676703647,0.902092446800989,0.00031191590625103777,212.58087158203125,119.11692127037097,8686077.000000004,6242649.000000003,2511520.000000001,Oak
413.88168188019023,13.495817338883798,0.11542477258237077,0.012816452092334722,0.8744696747980598,0.00016512656574159198,255.45748901367188,77.58306101378182,5341748.250000002,3303109.250000001,858609.2500000002,Oak
459.7121037131135,13.178600583308896,0.13075184203585635,0.012226142006337913,0.9070790723777957,0.00015047207469658634,291.5633850097656,96.3185432571902,6179292.250000002,3294007.250000001,953159.2500000003,Oak
332.7340276276462,10.849119899798737,0.23703869908030428,0.06652968588754633,0.960753320021827,0.004429199702064944,174.08099365234375,128.6864780252833,3932462.0000000014,2553081.000000001,1163361.0000000005,Oak
470.00934053310897,14.753673301734764,0.09011302488615504,0.011245589121927892,0.8632752497552819,0.0001269570517463664,277.831298828125,78.84121864199986,5210310.500000002,4358839.500000002,1150927.5000000005,Oak
221.31914576124743,8.849261461937637,0.15976614974651868,0.01892229869153192,0.9352831930554011,0.00036047655959675894,346.4254150390625,81.00663969624078,2980504.000000001,1601032.0000000005,386973.0000000001,Oak
262.87897209007053,10.599477604767358,0.12775888159644097,0.012873614591137334,0.9334425867796192,0.00016723817625434456,283.2153015136719,86.8996260039612,3990771.7500000014,1535002.7500000005,396334.7500000001,Oak
261.320654570974,10.039444249207229,0.15813775768003568,0.016065229378431196,0.9280365883651556,0.00025972332622247753,267.7296142578125,83.06438777569136,3611701.0000000014,1749723.0000000005,621436.0000000002,Oak
220.49826091527405,9.22508518358316,0.15735891318875755,0.015754284946361545,0.9437876199148418,0.00024983178369778814,301.79425048828125,86.85563763770826,2508935.500000001,2094437.500000001,369854.5000000001,Oak
603.4595179137949,13.555776774557557,0.19043943125048945,0.019647163308094337,0.7865233448127334,0.00038860757025555763,287.5286865234375,69.4143060707838,6762799.500000002,5295455.500000002,1821344.5000000005,Oak
372.16684162941664,10.109118127643072,0.18822363489718008,0.019084596302828348,0.9178686404596399,0.000367988427983365,302.87518310546875,92.61960066099518,5041235.000000002,2647231.000000001,647078.0000000002,Oak
364.65929118309043,11.098804230944662,0.17071313867696053,0.01575374301776323,0.9027506416186443,0.0002497623541991747,302.2432556152344,83.7688321493712,3457943.7500000014,3657022.750000001,1107153.7500000005,Oak
264.8447663158538,9.070924344002512,0.1940793499766898,0.01823276091196456,0.901785777795762,0.000334701348713884,290.5787048339844,70.91974187491643,3265362.750000001,2163542.750000001,714639.7500000002,Oak
660.8299671851602,13.316661425293692,0.17998953646965482,0.018583121714966663,0.928658861607001,0.00034702575798607407,205.64279174804688,132.7531870517855,8464709.250000004,5519503.250000002,1232772.2500000005,Oak
477.9763887086726,14.221176590734121,0.13233250280361764,0.015113857146129549,0.7633913637571994,0.00022972936648238892,320.4293518066406,57.99220432624505,6005553.250000002,3506222.2500000014,1749932.2500000007,Oak
390.3413694252441,12.709599192618093,0.11882962932122094,0.013180133773598912,0.8757571551189072,0.00017491678633745777,246.68209838867188,75.84166304050886,5213258.250000002,2802777.250000001,985225.2500000005,Oak
802.0583491475805,18.683025834414536,0.10615171161653666,0.01070026330582812,0.8394455117719848,0.00011519691983759112,276.7293395996094,94.02345454223676,11028166.750000004,5153002.750000002,2589866.750000001,Oak
251.03853360186275,10.615405027513374,0.12309678331213292,0.014351790988322425,0.9056591340282538,0.00020726716159728337,297.43182373046875,70.60703494852929,3314124.0000000014,1908551.0000000007,552992.0000000002,Oak
655.548980935859,14.524639967200464,0.13933278737674937,0.0170088867162944,0.7375502669747744,0.00029116095669290344,289.3207092285156,63.84930205576047,7938868.750000003,5176616.750000002,2152649.750000001,Oak
397.01663033754954,10.858961622333698,0.17190217113267886,0.020160929218522507,0.9399031809241603,0.0004090406593854251,196.08309936523438,112.57336179803863,5473673.250000002,2871739.250000001,504798.25000000023,Oak
225.1087213151248,9.235226595540116,0.14423438453862342,0.014342431573478753,0.947985256101503,0.0002065645555766602,284.7655944824219,91.51530254059851,2814181.250000001,1928154.2500000005,437509.2500000002,Oak
340.15217266196737,10.123669381968483,0.167445378271818,0.01910438170515805,0.8530001800586374,0.0003670733640062965,290.2436828613281,64.37862851299998,4151474.250000002,2555620.250000001,1276051.2500000005,Oak
476.28679803142995,12.962882830522213,0.15575737352441377,0.015787548352214065,0.874410849559519,0.00025062698244066576,285.508544921875,83.26759488915803,5644776.000000002,3405077.000000001,1913929.0000000007,Oak
353.50858706688985,11.135919342920918,0.17477285215416416,0.01591346267764754,0.9005342693500695,0.000255184546107183,262.9581604003906,81.42865745810471,4276900.250000002,2811591.250000001,992889.2500000003,Oak
382.74536072365015,11.642407262230833,0.12868444876968688,0.012398078294701697,0.9198827625432957,0.00015467327373227548,271.97332763671875,95.01408164427093,5190284.500000002,2515428.500000001,824670.5000000003,Oak
392.14167154759974,12.084377508049299,0.1422716616132688,0.01375817456153212,0.9376897336859078,0.00019041495631104538,274.2584533691406,109.79325131359079,3943977.2500000014,4119505.2500000014,836727.2500000003,Oak
544.9668459847271,14.046441392733305,0.15789307364550098,0.01408699836559057,0.8933167820388062,0.00020041062639198322,279.4791259765625,97.13159011570853,8087715.500000003,3217065.500000001,1385589.5000000005,Oak
349.9718274972368,10.945607233395574,0.15730576941650332,0.018470519380897457,0.9003141571044432,0.00034308076121013806,289.48345947265625,80.97349265976078,4250398.000000001,2956171.000000001,778070.0000000002,Oak
507.2066455209776,13.666599504998175,0.1605755068929803,0.016437953214496565,0.8463052738813563,0.00027212578808439425,287.8424377441406,76.69978603568403,5398604.750000002,4232383.750000002,2318767.750000001,Oak
235.95012543253193,8.681236693819793,0.17179095658497973,0.015055558650771048,0.9557644595892278,0.00022786105519834003,280.41796875,101.77445378860911,3079960.500000001,1912994.5000000007,392572.5000000001,Oak
444.15258871287654,13.439692410971514,0.1183812099988058,0.013698204453532684,0.866258168268425,0.00018870474621780965,300.3358459472656,77.68490348577666,5679264.250000002,3614966.2500000014,764670.2500000002,Oak
774.2618505352589,16.58999908388572,0.1218191741331216,0.01290305708986773,0.8280615761205562,0.00016717785785057206,291.7072448730469,89.00892596115789,8946945.750000004,6124439.750000002,2652404.750000001,Oak
341.84788604443804,11.866387732482465,0.1239889836527937,0.012199505442236705,0.9280767618638215,0.0001495166660288867,269.93670654296875,95.16596345149452,4163612.5000000014,2984631.500000001,673339.5000000002,Oak
205.29077407127693,8.591754102989285,0.1612882633618743,0.01868073098706384,0.9012107479227389,0.0003509504227465821,298.6591491699219,62.280726813404904,2736329.750000001,1511646.7500000005,420479.7500000001,Oak
458.9527300948002,12.567977926158026,0.16461503008278533,0.018930289756817435,0.8015060060040795,0.0003605173723729867,310.608642578125,63.063235377380344,5763639.000000002,3152789.000000001,1634973.0000000007,Oak
299.14755169286434,10.810233924451955,0.13955295082280852,0.014310987717332186,0.9046955130525234,0.00020564728038818982,285.02923583984375,76.59480464678366,3684909.000000001,2523607.000000001,704481.0000000002,Oak
623.4517628436515,15.562152237120543,0.1653178004652272,0.016806149389522324,0.8093357598690899,0.000283928416197099,255.92413330078125,75.45082711999655,8435189.000000004,4294086.000000002,1624732.0000000005,Oak
624.6255489475345,15.969297085255542,0.10997212405713724,0.012680831140866862,0.81102299264432,0.00016157825424233322,313.57440185546875,75.71673772416814,7630597.000000003,4727864.000000002,2227122.000000001,Oak
419.81681324490864,13.312235017781363,0.12083389707739786,0.014585846568828772,0.8408525775661662,0.0002137831876255703,295.8902893066406,68.55723621732501,5298347.750000002,3262305.750000001,1039805.7500000005,Oak
407.2605975916928,12.79460812848411,0.12182364463561389,0.014642595122975523,0.8657884638927955,0.00021594794382337834,296.8777160644531,74.36097792999053,5193516.750000002,2901792.750000001,1181797.7500000005,Oak
369.22079245363574,11.974330636053349,0.12783786541219144,0.012376072510406691,0.9168964688458612,0.00015435680334614798,286.6454772949219,91.4423000841616,5521351.750000002,2379736.750000001,583279.7500000002,Oak
766.210856311284,16.152444913013767,0.15045185106594372,0.016431318238269342,0.7830524222905829,0.0002721565564202501,282.8323669433594,77.50267854880487,9194518.750000004,5812226.750000002,2543993.750000001,Oak
825.5082151396418,15.53556456651268,0.1772207684168466,0.016920739534882358,0.7594426185618858,0.0002879726001562332,277.5618896484375,75.59515094198139,9787471.000000004,6385980.000000002,2964670.000000001,Oak
499.99001452266316,13.317173157559093,0.15694463154124333,0.01326822287212337,0.905171497921057,0.0001772010700001868,296.85040283203125,99.19337791900355,5654034.500000002,4129898.500000002,1847849.5000000005,Oak
737.4154648152299,17.064138822808392,0.11237681604672142,0.011094094497167618,0.8417830237226107,0.00012378583240565787,292.7433776855469,91.08375376698953,8924091.250000004,5985701.250000002,1935145.2500000007,Oak
380.44815027574725,11.196041411355965,0.22363355443865007,0.02207670905066899,0.8413432938390142,0.0004915855664859561,278.0873107910156,65.26641234819994,4431474.750000001,2892167.750000001,1577791.7500000005,Oak
121.23817510092462,6.541467824875043,0.21406635295622073,0.019831191654328634,0.9564422553819891,0.0003969523881265615,316.8419494628906,73.5646152927964,1676398.2500000005,889864.2500000003,148593.25000000003,Oak
410.734796127113,12.103812911500523,0.19858537642778876,0.02082654234722187,0.907162328183672,0.0004370789056383188,278.6012878417969,90.87895222598054,4949553.750000002,3168800.750000001,1487807.7500000005,Oak
158.74702151816973,8.145480223952333,0.16490328472635896,0.016511339421837745,0.938874853873729,0.00027375900408649844,287.2532958984375,70.81326466328058,1820642.5000000007,1436656.5000000005,333645.5000000001,TazeYaprak
184.10206337406586,8.437266390931338,0.16644819839613578,0.01558562164443541,0.9518296078673391,0.00024388312062522386,281.1391296386719,86.01356261151092,1719600.2500000005,2080854.2500000007,363369.2500000001,TazeYaprak
190.2131421808969,8.793621864186877,0.15554347419430803,0.018046194794307458,0.9343216843218611,0.0003269787115468556,314.3577880859375,74.54645524529445,2013895.0000000007,1957697.0000000005,345596.0000000001,TazeYaprak
166.78581854034806,7.853631971477347,0.1681391163997547,0.015812655176654058,0.9613994253933824,0.0002509950010360124,286.329345703125,91.72202495303928,1583661.0000000005,1885870.0000000005,291463.0000000001,TazeYaprak
155.19780458538054,8.010546739835636,0.1548827222869355,0.016012693575932855,0.9527378357807696,0.000257546680602737,279.3719787597656,79.787954921634,1890101.2500000007,1367759.2500000005,266395.2500000001,TazeYaprak
157.18238291763168,8.270897371203388,0.1539339121486834,0.01634644013528838,0.9428092539569269,0.00026847525029017634,291.0745849609375,72.67030666996962,1597867.5000000007,1735181.5000000007,256824.5000000001,TazeYaprak
184.79970624279747,8.918859393021961,0.14749013925531665,0.016626326472966378,0.9028161303671245,0.00027772035809376863,284.505859375,59.71064538022021,1826504.0000000005,1950852.0000000007,359538.0000000001,TazeYaprak
137.02422735546673,7.621787969170471,0.1634533574853299,0.01741264764160268,0.9437613601219459,0.00030451437853328553,295.5767517089844,68.62954212591305,1185865.2500000005,1625443.2500000005,287007.2500000001,TazeYaprak
123.41149482771291,6.930208483515997,0.1887337252446527,0.019390196462026707,0.9514573990455781,0.0003777673139941364,284.2235107421875,70.25039640317766,1221975.0000000005,1384104.0000000005,231234.0000000001,TazeYaprak
163.44656391172126,7.729624122933521,0.1802524162178037,0.01672806351151244,0.9457727067004233,0.0002813525165263656,283.5794372558594,76.23267259673464,1451230.2500000005,1999229.2500000007,262534.2500000001,TazeYaprak
145.69766685289636,7.345277267156838,0.1856445999700459,0.01710835995967585,0.956665215515778,0.00029400088673602607,293.5103759765625,80.90878858364823,1323284.0000000005,1690346.0000000005,238486.0000000001,TazeYaprak
226.29999298647658,10.798803570141104,0.10824236212529013,0.015581606658622864,0.8714996726772469,0.0002436903617124716,298.8813781738281,56.77980809198762,2120938.750000001,2564146.750000001,394784.7500000001,TazeYaprak
182.08168369738038,9.46997534001342,0.12427231828850291,0.014703869325576215,0.9386964936859047,0.00021690809735397344,295.11297607421875,75.63718582465282,1831613.0000000007,1925779.0000000005,315341.0000000001,TazeYaprak
186.48743124640635,8.229948817762542,0.17569622027729098,0.01602926023365433,0.9463560798438427,0.00025816908761502454,266.8369140625,81.9725315270283,2035784.0000000007,1814989.0000000007,322924.0000000001,TazeYaprak
159.2089340938632,7.98545805699727,0.17713795388942583,0.016223650498355287,0.9534245526877,0.0002644516327532749,280.7545166015625,81.40266069408834,1510397.0000000005,1870275.0000000005,263623.0000000001,TazeYaprak
128.50507084114457,7.187893163086285,0.182800582356009,0.01746796503443131,0.9637668506137685,0.00030651491638527905,286.9561767578125,83.12934119703779,1238545.5000000005,1495527.5000000005,211122.50000000006,TazeYaprak
147.22371063713854,7.668529276600347,0.16818877906129648,0.01671764339118774,0.9513360011937686,0.0002805934627968715,281.8783264160156,76.61159267649127,1555099.7500000007,1438744.7500000005,302386.7500000001,TazeYaprak
139.9768428308841,7.320295439254067,0.17792474630136967,0.01846671610233973,0.9576982099422666,0.0003424367193213271,298.7817687988281,80.22246650624116,1372380.7500000005,1574481.7500000005,226789.7500000001,TazeYaprak
163.10025835916846,7.587687142565345,0.17734906426025518,0.016493342503706723,0.9578134063456056,0.000273592405369516,290.3929748535156,86.6969148613289,1343845.2500000005,2042627.250000001,254741.2500000001,TazeYaprak
144.2749014651834,7.901341085760215,0.16467068201135285,0.016865280590103143,0.9510923118899107,0.0002854483600731162,290.84710693359375,75.75300899473976,1276618.0000000005,1656504.0000000005,292190.0000000001,TazeYaprak
160.7629451112589,8.052209366589786,0.16413564312376316,0.016513671081084678,0.9448318070420632,0.00027383452899319607,292.02484130859375,74.94641371382413,1755483.5000000007,1627143.5000000005,288655.5000000001,TazeYaprak
180.52314824827306,8.242109435072992,0.16619104281272415,0.016057406066352684,0.9595081276448643,0.00025867860555558975,281.1470947265625,93.19835535708997,1798714.0000000007,1876414.0000000005,371152.0000000001,TazeYaprak
135.66764801999472,7.825529994473216,0.1542851324296649,0.019035487452218246,0.946968637373592,0.0003635520397808451,307.4339294433594,70.43739200121284,1288335.7500000005,1461746.7500000005,287073.7500000001,TazeYaprak
157.5541469176549,8.033537416498378,0.1664478745183651,0.015262390675741606,0.9599760205846576,0.00023383721920635644,277.9956970214844,87.51457413734259,1662267.7500000005,1526682.7500000005,302523.7500000001,TazeYaprak
134.94244293060476,7.196662972174098,0.17189068931749088,0.019578231332809615,0.9559329801485389,0.00038471809608630914,312.1149597167969,77.26423379505142,1315046.2500000005,1453842.2500000005,277736.2500000001,TazeYaprak
304.4761928855596,10.861545904820158,0.15371817208416094,0.01953197618567921,0.8083076906336278,0.00038294394102778316,303.3307800292969,52.65775138555911,2901032.250000001,2953259.250000001,1064927.2500000005,TazeYaprak
153.3279351992044,8.02205284626098,0.1639185235334889,0.016482035396439578,0.9609309805082316,0.00027270489499564804,277.7430419921875,87.51828969940166,1441808.5000000005,1708849.5000000005,241710.50000000012,TazeYaprak
167.48232895701486,8.054990283184328,0.16595491616807914,0.015896051019356792,0.9492856377201193,0.0002536591260331802,278.7832946777344,79.98469505307854,1804856.2500000007,1569767.2500000005,291984.2500000001,TazeYaprak
174.9760761335837,8.578994001706135,0.14910147839165058,0.015179807728833318,0.9452152684392514,0.00023135610116345497,285.01165771484375,78.5163056847735,1564729.5000000005,2033146.5000000007,334030.5000000001,TazeYaprak
217.88373510188848,9.961763834823024,0.1220941338465562,0.013725284470539082,0.9418776496563538,0.00018905954956792857,278.3428039550781,84.94038989734067,2332516.750000001,2154742.750000001,375056.7500000001,TazeYaprak
140.55751248017927,8.123189833837975,0.14658445009130544,0.018022996897621924,0.9335074526562406,0.0003259687774738358,305.8343200683594,63.70965041801626,1502151.7500000005,1396356.7500000005,282598.7500000001,TazeYaprak
164.21858930459683,8.410276726499351,0.1502002979593843,0.01700572158938912,0.9565677242717885,0.00029016410625410755,302.28997802734375,85.74089791683696,1795351.5000000007,1657146.5000000007,258924.50000000012,TazeYaprak
143.01555525519447,7.8223127823432685,0.17158230316312278,0.017809674757399755,0.9465319390681995,0.00031843135788649853,284.99517822265625,71.89908335437723,1321244.0000000005,1675221.0000000005,267786.0000000001,TazeYaprak
156.65645262639782,8.455190341455214,0.15032220371603353,0.018063871015051226,0.9150023750507933,0.0003275103754480661,311.4508056640625,59.17565520986584,1467047.5000000005,1735385.5000000005,289823.5000000001,TazeYaprak
144.33514372477197,7.9688207660515,0.1627213907356075,0.016681745054255664,0.9524085409321628,0.0002793407742720735,283.4789733886719,76.68808597757594,1329228.2500000005,1581851.2500000005,330769.2500000001,TazeYaprak
184.6148914029526,8.5686595149702,0.17248461913432436,0.016182584797547382,0.939802535157196,0.00026294523207947835,270.3006591796875,76.73513518894636,1556932.5000000007,2273803.500000001,362295.5000000001,TazeYaprak
149.551979932604,7.743167756992506,0.18419360826041453,0.01621182122421278,0.9598052920306359,0.0002640264439834449,258.1827087402344,85.16140423456372,1434593.7500000005,1679330.7500000007,283566.75000000006,TazeYaprak
152.12478806229257,7.217468731978213,0.2083494819895036,0.017106150000086834,0.965236263015655,0.0002946492456800875,256.37469482421875,92.36160474347909,1052061.5000000005,2149081.500000001,269474.5000000001,TazeYaprak
216.38880585292992,9.6055845858565,0.14167909719007382,0.015509331427048911,0.9289169776901629,0.00024143168973121958,253.38995361328125,76.28889532366347,1817325.5000000007,2643241.500000001,454374.5000000002,TazeYaprak
249.45412069577344,10.22485493860518,0.1472843602907676,0.01445471521822192,0.9347974710572718,0.0002097856951061457,280.0184020996094,85.57231916904658,3033502.250000001,1931718.2500000007,523769.25000000023,TazeYaprak
231.82039649714957,9.831408697976759,0.13804302932178553,0.014208019717918897,0.9359126647579379,0.00020264102316646244,253.30511474609375,83.1474005485439,2240068.000000001,2480934.000000001,454219.00000000006,TazeYaprak
255.2227064860911,10.572273539623906,0.12851305279793374,0.013211182105224064,0.9362680846590757,0.0001751222558989875,291.6068115234375,87.68472864857063,2479778.000000001,2594840.000000001,592998.0000000002,TazeYaprak
231.8582188190902,9.82318049247877,0.147203849400161,0.01391224367374436,0.9505976178991605,0.00019423647104527635,281.8898620605469,95.22393250085948,2913726.250000001,1881072.2500000005,462817.2500000001,TazeYaprak
248.82685041511104,9.851273233251593,0.14770668104574164,0.014064578937833203,0.9354906975532695,0.0001985070925050451,288.1859130859375,86.03915887352876,2064717.000000001,3009953.000000001,503631.00000000023,TazeYaprak
211.00839333130097,9.54807359248855,0.14157848972731335,0.01398720529453232,0.9447561016164459,0.00019642475444871208,261.34210205078125,85.87588327918277,2106961.000000001,2172829.000000001,410445.0000000002,TazeYaprak
151.98136679702912,8.153909058415026,0.153595061427506,0.016261049794277685,0.9502839969142479,0.00026540860235706306,256.6795654296875,76.9059008884334,1478314.5000000005,1721052.5000000005,230954.50000000006,TazeYaprak
164.57113697256116,8.360362721068794,0.15373072076271554,0.014945988020902896,0.9627422735910399,0.0002241069500996609,289.6339111328125,92.84054142199525,1385730.5000000005,1921202.5000000005,401684.5000000001,TazeYaprak
183.39834832156237,8.873677521866554,0.14590261832182336,0.01390619697550853,0.960851023633062,0.00019418212243501505,290.19976806640625,95.55904417698241,1821829.5000000005,1879931.5000000005,354074.5000000001,TazeYaprak
161.12147908857244,8.009786710639938,0.17146114275906627,0.017172379529224964,0.9704674439658393,0.0002958558641152763,301.5334167480469,103.36301440774982,1657243.2500000005,1631200.2500000005,382512.2500000001,TazeYaprak
169.79051889599208,7.060031132857832,0.26162438571813557,0.02463511231922704,0.9483236048887994,0.0006097878768854559,235.41806030273438,79.62343232808638,1357137.2500000005,2167114.250000001,306895.2500000001,TazeYaprak
234.16547450200284,10.050759638720614,0.13452826415126876,0.01508075980896582,0.9150785875164501,0.00022820089266350438,294.9677734375,72.2267629815595,2749116.500000001,1801486.5000000005,573230.5000000002,TazeYaprak
155.8531737342652,7.677501576917519,0.2006378109527109,0.016317980171750776,0.9674201299681826,0.00026770483294798116,285.48736572265625,96.75287172762889,1449064.0000000005,1705917.0000000005,373853.0000000002,TazeYaprak
243.26814173034882,10.377791324250058,0.12175392555965087,0.013865481497720744,0.925674410187985,0.00019285825297930554,285.3257751464844,79.00112563677291,2311660.750000001,2653602.750000001,531415.7500000002,TazeYaprak
180.39788876274403,8.156400513023947,0.18570401499963238,0.018198882933746052,0.9595872248880458,0.000332960386775517,261.93939208984375,93.13876337455311,1460438.5000000005,2204229.500000001,344339.5000000001,TazeYaprak
230.8520651161842,9.683687719266516,0.1413528768105908,0.013882797397128848,0.9484295403535985,0.00019341413649068414,307.12249755859375,93.05588719323887,2338541.000000001,2314408.000000001,537124.0000000002,TazeYaprak
152.01382124663832,8.013247789311716,0.15580440707634052,0.01608715300996776,0.9580669655533249,0.000259628892697168,299.8240966796875,83.88025469733782,1453327.5000000005,1651825.5000000007,353157.5000000001,TazeYaprak
281.03205470853175,11.314409421856775,0.11311788949346163,0.012348679548472082,0.9286409775741448,0.00015312106469051476,279.45526123046875,86.54691033412983,2524399.000000001,3213228.000000001,666903.0000000002,TazeYaprak
267.05290851176255,10.966517039720133,0.12665175037343923,0.013259711801036123,0.917434047689989,0.00017651189575152918,271.0075378417969,78.10819988077765,3176827.2500000014,2241583.250000001,643152.2500000002,TazeYaprak
164.50061986375903,8.169395364763517,0.1779913630266879,0.015616843390388001,0.9662492799644193,0.0002450497782767574,274.36956787109375,97.62452805613151,1600951.0000000007,1863321.0000000005,274006.0000000001,TazeYaprak
244.09419264826982,9.931512278931152,0.15279051554180564,0.014864184944527858,0.9305415700667743,0.00022170278936234347,246.46044921875,81.95597397004249,2272836.500000001,2615011.500000001,549629.5000000002,TazeYaprak
235.61319791367254,9.890507692353893,0.1370878870970409,0.014155577149491625,0.9276591813091215,0.0002012879205024054,258.5243225097656,78.75398735777465,2165672.750000001,2543691.750000001,432788.7500000002,TazeYaprak
163.2747729839551,7.5323893754806015,0.19222914232440647,0.016622046302860165,0.9595239837025834,0.00027742825303549384,276.47100830078125,88.57127664592178,1394207.0000000005,1994806.0000000007,310493.0000000001,TazeYaprak
183.57560747369098,9.609280760404495,0.12310276996443015,0.014770045480072064,0.9371577337938243,0.0002187932816584067,320.02734375,74.93081597051268,1849562.0000000007,1874964.0000000005,481660.0000000002,TazeYaprak
495.50131124449774,14.768110912869938,0.10324424117143131,0.011811683295669218,0.8726141801877803,0.00013963536487884642,287.98101806640625,84.12964655942365,4506643.000000002,4344103.000000002,2880871.000000001,TazeYaprak
269.58796376394383,10.799170541378007,0.13803475970661375,0.013986262107033586,0.9151298118865168,0.00019625127742554604,276.93463134765625,77.32635417934665,2777864.000000001,2615652.000000001,768463.0000000003,TazeYaprak
229.6587999657654,9.267543417796107,0.18852700017224866,0.01610873091393535,0.955787849841008,0.00026053089569632833,273.4991455078125,100.36340979235786,2444502.000000001,2189871.000000001,569938.0000000002,TazeYaprak
134.5470417477675,7.5820221339147595,0.18018678176164338,0.016124095948808682,0.9651479205006285,0.00026132407617163883,294.45318603515625,86.74102141996075,1127691.5000000005,1643707.5000000007,215893.50000000006,TazeYaprak
136.97329550233655,7.295865968017056,0.18966219671443157,0.015742579383379213,0.971897411817271,0.0002488958938752059,236.2933349609375,97.87040775121842,1158832.0000000005,1626054.0000000005,251878.00000000012,TazeYaprak
198.6120457876887,9.004392781622629,0.15161856778808372,0.01560695310403228,0.938238131855901,0.0002445317409990433,254.30548095703125,78.49587615740637,2246626.500000001,1857768.5000000005,387491.5000000001,TazeYaprak
212.2068596813828,9.419313575307514,0.14079802888400758,0.01547033692650735,0.9341185126191323,0.0002404006939307662,270.4515686035156,78.43147847112432,2855171.750000001,1559083.7500000005,412192.7500000001,TazeYaprak
154.03623652862242,8.433276609356932,0.14719634151507072,0.014635357224577615,0.9543637365906696,0.00021514863484258304,275.4623107910156,80.90865024748719,1565994.2500000005,1591198.2500000005,292650.2500000001,TazeYaprak
52.24534566032193,1.9480111916089462,0.6854684803812885,0.092401491826487,0.9885580302428079,0.008588430865643409,300.2358093261719,95.04788934832823,812195.2500000002,240081.25000000006,76386.25000000001,TazeYaprak
58.51688791570483,1.7983872488946602,0.7109567337985506,0.09790269566958887,0.9872271408545009,0.009651543556887337,310.3505554199219,95.1168308306152,688216.7500000002,512858.7500000001,159646.75000000006,TazeYaprak
71.23079605800527,2.2095464785178143,0.6779341355084353,0.09104484706201742,0.9871830563217022,0.00832740244678251,306.38751220703125,104.79209230742705,1043439.0000000002,406456.0000000001,120748.00000000004,TazeYaprak
41.19935242755174,1.7718912948145094,0.6855459042511507,0.10254902334196722,0.9921627976419976,0.010576110988698392,354.7249755859375,102.12794914030574,394272.5000000001,398414.5000000001,72214.50000000001,TazeYaprak
54.18409154531865,1.892614769559796,0.6996680966178268,0.1027877225577741,0.9871240273613912,0.010631018552515884,319.66827392578125,91.19691225439333,867371.5000000002,247713.50000000006,80408.50000000001,TazeYaprak
60.7475877967606,1.995415915753563,0.6930508878552845,0.09388443021874276,0.9863145292020543,0.008893038693746434,301.001953125,93.65378866439453,1063791.5000000002,166913.50000000006,76214.50000000001,TazeYaprak
35.02476634587654,1.6083116169261933,0.7035132613306883,0.09912367382780782,0.9914155555832824,0.009885810221986256,341.1079406738281,89.93780941061156,382206.75,329187.7500000001,59444.75000000002,TazeYaprak
46.79358723207418,2.6525752114571386,0.5580798243186799,0.06575365669075586,0.9898308803254452,0.0043487883064930455,246.48623657226562,95.52382906548871,569966.2500000002,420227.2500000001,76405.25000000003,TazeYaprak
43.49901621371493,1.6681505310457008,0.7384699835189934,0.16096891550640832,0.9931352173984788,0.025979164137936845,421.8035888671875,112.03559717119713,496236.0000000001,389132.0000000001,94445.00000000003,TazeYaprak
52.31321923959422,1.6281918763215644,0.7503922395593747,0.14666403012715187,0.9907322155974658,0.02158305855063926,422.2457275390625,105.68051359368845,946299.0000000002,105002.00000000004,32706.00000000001,TazeYaprak
49.84412137158638,1.9414616974240055,0.702700804580667,0.13887306333514582,0.9926204778226597,0.019354788817112705,418.9170227050781,115.6747215311815,806455.2500000002,267096.25000000006,74612.25000000003,TazeYaprak
59.05087826797259,1.729106022923831,0.7906572758924091,0.4179204106979864,0.990713303565313,0.17467014501953698,457.96148681640625,112.12235652688068,836788.0000000002,357510.0000000001,90878.00000000003,TazeYaprak
136.27141248257152,4.489455122428579,0.49499310524721346,0.05516594045428797,0.9894492538991136,0.0030716420163529744,318.05963134765625,159.94972740790197,1597146.5000000005,1237671.5000000005,199395.50000000006,TazeYaprak
66.38537386461843,1.5888643490484278,0.7356635941045716,0.08881779955515316,0.9911474858892521,0.007948146054249249,379.9948425292969,121.88578110222507,137921.75000000003,1168745.7500000005,58593.750000000015,TazeYaprak
67.26380565767974,1.6122172061226527,0.73350019183049,0.08826910407766293,0.9893802169509976,0.007850362854606194,378.85833740234375,111.93732966062832,112508.00000000003,1210711.0000000005,50675.000000000015,TazeYaprak
77.41495245218101,1.983074628748546,0.7017544509372933,0.10742298394779401,0.9907313762638863,0.011595154865229721,340.20159912109375,128.58541658288618,354257.0000000001,1256527.0000000005,135514.00000000006,TazeYaprak
69.99226585027243,2.2178611441512395,0.6512639143643235,0.10232152522272903,0.9930599507197254,0.010510227231031092,303.28924560546875,141.4706192549193,565947.0000000002,862713.0000000002,139072.00000000006,TazeYaprak
66.58769152789665,2.367589764153163,0.6150024927221318,0.09272583096577479,0.9942497335653812,0.0086225714717632,273.8925476074219,151.76806836324587,616150.2500000002,723924.2500000002,106070.25000000003,TazeYaprak
61.65884873005456,2.141161151960733,0.6353241718039011,0.07538406181315759,0.9946678952464254,0.0057147598826161475,296.8862609863281,151.6010749068887,629601.7500000002,666445.7500000002,103813.75000000003,TazeYaprak
54.6255933715392,1.6506787954152293,0.7170907757067555,0.10701892193401145,0.9866029854289872,0.011510119804054664,320.79595947265625,89.71093746343682,118471.00000000003,997818.0000000003,60162.00000000002,TazeYaprak
50.855247305723125,1.6050948403258372,0.7173597084079253,0.1073389545420091,0.9870264169382093,0.011582890157036226,321.6063232421875,87.91341311691987,89772.50000000001,1156176.5000000005,35139.50000000001,TazeYaprak
51.80186716046644,1.7885810745867028,0.6849156758011221,0.0962147862223533,0.9875596545340746,0.00930660724888974,312.30145263671875,90.69629389430051,169093.50000000006,923748.5000000002,73543.50000000001,TazeYaprak
61.64465707299962,2.1174647971933434,0.6408606745003764,0.0776117003196932,0.9943619413461435,0.00605700351329671,301.4091796875,147.39677233105957,660980.5000000002,611079.5000000001,104384.50000000003,TazeYaprak
54.73225545763565,2.188043856329269,0.6254424315542899,0.07201023381738991,0.9908531056289535,0.005219476586867303,327.3639221191406,108.90443679118616,423571.2500000001,665794.2500000002,152385.25000000006,TazeYaprak
55.513761609115896,2.3609838013023237,0.6001488574338995,0.07301565471637017,0.9923933542689771,0.005358563935705059,307.5223083496094,120.35073753071947,666290.2500000002,431416.2500000001,107790.25000000003,TazeYaprak
59.005595218784876,2.470469455858257,0.5866703276585313,0.06822173409984672,0.9928798848454558,0.0046781256849474555,321.74249267578125,128.2719450979305,790026.5000000002,435493.5000000001,99307.50000000003,TazeYaprak
77.1629377973602,2.9765437722269312,0.5718632973246456,0.08776159206834996,0.9946915579370323,0.00771319604023217,326.6261901855469,170.07109770518176,889857.2500000002,741941.2500000002,115419.25000000003,TazeYaprak
97.83115434869563,3.4847914413929173,0.518899527899742,0.09195238607561594,0.9937691793462518,0.008463524837922972,289.43701171875,176.90682530945543,965306.0000000002,1075062.0000000005,151210.00000000006,TazeYaprak
77.42837320681768,2.372681705954367,0.6295178985404041,0.07660610903472662,0.9942054736867965,0.0059067340718587736,340.2782287597656,162.88129506107768,455600.2500000001,1133531.2500000005,96779.25000000003,TazeYaprak
68.13540472714669,1.681529805243136,0.7824240108724683,0.39790376011410766,0.9916714054083766,0.15833168927652738,436.99090576171875,127.2332116212697,206931.00000000006,1179972.0000000005,82032.00000000003,TazeYaprak
66.36488919525988,1.5833360366204898,0.7963538997200592,0.40311833634014566,0.9913074378310183,0.1625182476195971,444.9510498046875,122.91207341781629,128763.00000000003,1162560.0,55792.000000000015,TazeYaprak
71.76158016147492,1.7719487096308675,0.7403627146017218,0.1278690063072392,0.990429539867215,0.0164101759039423,394.85174560546875,121.77383381070325,141336.50000000006,1271355.5000000005,65377.500000000015,TazeYaprak
70.99101613561956,1.91558577229907,0.7090281520052355,0.11724188158044703,0.9919149608798904,0.013798967120587622,380.62005615234375,131.83534672310884,221129.00000000006,1279041.0000000005,79826.00000000003,TazeYaprak
69.12922294009356,2.1930121677959833,0.6447158848411809,0.09084161826645726,0.9941915094392675,0.008291712739221004,333.8258972167969,153.70897088596823,472743.2500000002,1046746.2500000002,99137.25000000001,TazeYaprak
81.62771398020374,3.23773704825077,0.5537800751096355,0.20333461756864601,0.9943018947745934,0.04135447071739607,333.3099365234375,168.94330790760418,838211.5000000002,853815.5000000002,121457.50000000004,TazeYaprak
78.73226370266659,3.2742868728374663,0.548146574464657,0.1893167100740893,0.9947147182786283,0.03584760529361336,327.3319396972656,172.30879738140663,911171.2500000002,759998.2500000002,84325.25000000003,TazeYaprak
82.56331591215151,3.8966381019320195,0.4622426564970839,0.0473484265231323,0.9923991958848579,0.0022642874683014586,279.0531311035156,147.05067535720025,613023.2500000002,1101531.2500000005,111167.25000000004,TazeYaprak
69.04411279615842,2.2908694822903954,0.6423609087496076,0.09682003170515055,0.9931181475624088,0.009418645923989973,344.8222351074219,141.05696448888912,379978.2500000001,1063427.2500000002,121525.25000000003,TazeYaprak
61.06702555807716,1.8358456633265563,0.7050141280264325,0.11427347308238221,0.990711818775504,0.01311859802968936,388.1937561035156,114.0283552466103,159880.75000000006,1144649.7500000005,73585.75000000003,TazeYaprak
60.16073581975549,1.8312854881535467,0.6943455214024089,0.10429776803980889,0.991250876380957,0.010929762998358121,381.9441223144531,116.63598020986197,115537.75000000003,1231567.7500000005,56780.750000000015,TazeYaprak
60.861496915247805,1.8159690233323238,0.7153152018258018,0.1241797215549401,0.9913994480791353,0.015475995752752197,392.6792907714844,118.35028497049589,176535.75000000006,989057.7500000002,65912.75000000003,TazeYaprak
63.40068852724782,2.3550147178968914,0.6206266707732541,0.09140716447804725,0.9943332668745434,0.008392418027900125,346.1159362792969,149.05154920570254,400432.25000000006,902345.2500000002,129386.25000000004,TazeYaprak
93.88711742479457,4.215297331555318,0.42436523065237214,0.0439188524945095,0.9929356610631547,0.001945115881697934,259.4593200683594,162.75825531338745,882559.2500000002,1119541.2500000005,118424.25000000003,TazeYaprak
95.02240313221391,4.381502216695647,0.4751493570526589,0.22574919257920942,0.9918218105632819,0.050968316477743,322.45947265625,152.22302459920482,867222.5000000002,1101342.5000000002,151468.50000000006,TazeYaprak
66.26456010008025,3.1778517727555546,0.5452840590612895,0.06930000574033643,0.9921330973185213,0.004820736899601921,352.8733215332031,129.32874508770126,809559.7500000002,551671.7500000002,115657.75000000003,TazeYaprak
78.45399361123087,3.551592070958218,0.5091548043551619,0.062292616117934116,0.9911497272619619,0.0038996925835508237,337.91253662109375,132.6530219362509,682255.5000000002,891870.5000000003,215692.50000000006,TazeYaprak
61.42126691056265,2.3878918264609053,0.619001473226003,0.0793194234901679,0.991153730128808,0.006333655731793307,322.5761413574219,117.2702695365136,353324.7500000001,887778.7500000002,145469.75000000003,TazeYaprak
52.768651284961564,1.8418015456794952,0.6944860878498336,0.09245641272397132,0.9894580761986024,0.008603848119299993,329.824462890625,99.49197774175275,194140.00000000006,813096.0000000002,94628.00000000003,TazeYaprak
52.035714133385014,1.6880834745049524,0.7292968009901835,0.11456221375381977,0.9889973700855194,0.013188921232047497,343.749755859375,96.6364287687349,150950.00000000003,992083.0000000005,51417.000000000015,TazeYaprak
47.24394810589563,1.5968927666041477,0.7410779801013186,0.1263995383986473,0.9891983688818855,0.01605292098862023,352.0525817871094,92.90743528598944,88147.75000000003,1012862.7500000003,40930.750000000015,TazeYaprak
50.09632340926447,1.7846421748846144,0.7237683574442104,0.12732924628560488,0.9898771123551597,0.016281429549647265,346.6327819824219,98.90132028307401,151057.75000000006,830676.7500000002,93138.75000000003,TazeYaprak
51.67277131992398,1.9665279279603392,0.6948257475940169,0.11136455740411022,0.9906553647693475,0.012456119679628947,334.45733642578125,104.58392108819007,250265.50000000012,774354.5000000002,102674.50000000003,TazeYaprak
49.558480542338565,2.163305249182956,0.635664783329077,0.09056387882150974,0.9933014285030527,0.008248721950845984,303.3566589355469,121.14906652717006,382703.2500000001,581373.2500000002,87531.25000000003,TazeYaprak
95.90583025458804,3.760939647611369,0.5025879972564024,0.05068868120017814,0.9914774495847897,0.002588973468022506,299.2765197753906,149.43670722543123,1042724.7500000003,930837.7500000003,114226.75000000003,TazeYaprak
85.56547403642638,3.468181468665763,0.5194776429688538,0.05705653521954628,0.9920306987812681,0.0032818004063818822,317.0989990234375,145.97104241042717,1036793.5000000002,768178.5000000002,89486.50000000003,TazeYaprak
96.91782787869798,3.6194940047096074,0.504701928818731,0.056143565538701076,0.9906137426166582,0.003188924519902284,312.58050537109375,143.03601406351547,786456.0000000002,1228838.0000000005,168306.00000000006,TazeYaprak
60.95926416522403,2.1564386594097846,0.648232306994271,0.08604476912197329,0.9911419027092457,0.007455724672551076,335.9129333496094,116.70670629730155,285922.7500000001,1042582.7500000002,101303.75000000003,TazeYaprak
50.11059062319681,1.7500426668828881,0.7069777920276927,0.11378111547454245,0.989352304716209,0.013007075141051946,314.3705139160156,96.44772110109844,125365.25000000003,873768.2500000002,67551.25000000003,TazeYaprak
46.30597222222128,1.6530575680026454,0.729737164217023,0.12743672248447255,0.9881018150943254,0.01630564645509889,326.4033203125,87.6426997518109,105014.50000000003,874462.5000000002,44651.500000000015,TazeYaprak
46.184443828694576,1.8796593707948333,0.687236695826891,0.1109316759939406,0.9899710781904122,0.012350617372351252,311.0907897949219,95.43760830442271,158656.75000000006,739184.7500000002,70304.75000000003,TazeYaprak
42.88450534349692,2.24124842308244,0.6005042401334176,0.08132520585248554,0.9934133334381307,0.006644168291922236,271.547119140625,113.67074651072775,334305.0000000001,552519.0,83995.00000000003,TazeYaprak
44.84476916931011,2.4847334558823633,0.5475748838602474,0.06529641618334545,0.9930701213234413,0.004283625862896421,236.62677001953125,113.4642594176774,527464.0000000001,379877.0000000001,73281.00000000003,TazeYaprak
119.8158674247841,4.6524225658398395,0.49060515839270535,0.0650844410242931,0.9896494299668199,0.004271023909994481,314.86773681640625,151.4324585856223,930412.0000000003,1583135.0000000005,207575.00000000006,TazeYaprak
119.90055274713478,4.367541044910353,0.48987196536066396,0.062291788290043976,0.9904769919233257,0.003917618999483857,324.0404357910156,157.99998608577783,1010949.7500000003,1416957.7500000005,247378.75000000006,TazeYaprak
109.51432589027911,4.032530877546934,0.5216823821989243,0.0583107557286272,0.9902767151974288,0.0034373420070014076,310.3080139160156,149.3623944279444,824264.2500000003,1497920.2500000005,180236.25000000006,TazeYaprak
97.51141053020301,3.2555592650662,0.557575356578214,0.05609802162635216,0.9904507573581671,0.003194915717223315,309.4247131347656,142.18028385355674,580511.7500000002,1407511.7500000005,136923.75000000006,TazeYaprak
70.30115006848101,2.2685503772586664,0.6761914181084536,0.11379240997334432,0.9937542452986249,0.012983061500421552,353.01336669921875,149.45206258457756,1111861.0000000002,322868.0000000001,100507.00000000003,TazeYaprak
75.93813764537394,2.452829771001429,0.6268723897649076,0.09918564295233383,0.9936506396674043,0.009908070842843524,350.2137145996094,153.9673539133054,1377104.7500000005,269756.75000000006,94840.75000000001,TazeYaprak
70.3709827199859,2.2164958639705117,0.6802477033503788,0.10700938842385962,0.9918583747339204,0.011493955585210693,345.3896789550781,130.81485398079255,1182368.2500000005,303415.2500000001,141508.25000000006,TazeYaprak
92.26155909085071,3.1763034800315677,0.556567478241486,0.0594782424899402,0.9909855669063078,0.0035785801187483302,355.53985595703125,142.39915564941654,576100.0000000002,1216553.0000000005,241772.00000000012,TazeYaprak
49.56653528690761,1.8094564590541578,0.6841957543264652,0.10901324796553272,0.9914315033575016,0.011945737372446738,330.5431823730469,107.0011756899324,986696.2500000003,159489.25000000006,79471.25000000003,TazeYaprak
57.58920951376772,1.7061825830209314,0.7256456809495522,0.12480977629034362,0.9892040868111465,0.015663954717926566,347.7984313964844,102.60254301959255,115384.25000000004,1215659.2500000005,59824.250000000015,TazeYaprak
49.46178245746751,1.9746788494809193,0.6330258835478141,0.06970893313978371,0.9948126729264224,0.004894214327105495,306.818115234375,137.6704014441782,391550.50000000006,614282.5000000002,112236.50000000003,TazeYaprak
52.43858353758095,2.241491703911899,0.59126130705454,0.06166369442752258,0.9946742930265111,0.0038285421015022717,269.1325378417969,139.97325433438974,504127.2500000001,533905.2500000001,108906.25000000003,TazeYaprak
103.92064336733257,3.4448827223903016,0.5470527042382042,0.111141994982777,0.993039167674244,0.012363284442117158,330.6058654785156,172.3171711298863,925741.2500000003,1152439.2500000005,255131.2500000001,TazeYaprak
77.84312124543334,2.057720107650852,0.675680774322346,0.07775190275951538,0.9924905028913367,0.006089077990115333,340.1476135253906,143.36618879555851,390152.25000000006,1297026.2500000005,126644.25000000004,TazeYaprak
86.13094880874839,3.534932192545985,0.6012745738558753,0.09055405237432791,0.9887394167723879,0.008251657623195904,394.614013671875,123.01785285775492,1244325.5000000005,459235.5000000001,159881.50000000006,TazeYaprak
104.25435852496285,4.2108933613272,0.5898481853866877,0.21530589683984797,0.9860663600853873,0.04636436940788103,400.59014892578125,121.54933021578341,1208236.0000000005,927314.0000000002,230077.00000000006,TazeYaprak
57.083018986086614,2.082177332636503,0.7180015749822576,0.12292678098625778,0.9840421200557481,0.015163479245099726,406.95172119140625,83.9546016670943,943861.5000000002,232579.50000000006,102164.50000000003,TazeYaprak
75.0677207534359,2.535275840421969,0.6990834236171091,0.12158527334200295,0.9794553149286918,0.014861608377091039,420.1121520996094,84.75958743997887,1191068.7500000005,274952.7500000001,141956.75000000006,TazeYaprak
102.76626001717773,4.437002099552869,0.5117212010828617,0.07310401976140515,0.9873167586058118,0.005376654631449866,332.9890441894531,126.60981255020694,1353111.2500000005,821495.2500000002,165554.25000000003,TazeYaprak
68.26734532691584,2.619332873774404,0.6777300014543538,0.11620761674777388,0.988467145363725,0.01357623843266111,399.9998779296875,108.15420275454593,1149269.5000000002,240544.5000000001,97855.50000000003,TazeYaprak
64.6209200487774,3.018314680651539,0.611976547727537,0.09661060168136681,0.9922354268071921,0.009380661246617083,359.7509765625,128.45142321705796,1013499.0000000003,352994.0000000001,103246.00000000003,TazeYaprak
79.78548130526579,3.825307994521192,0.4946503293072223,0.05755582940336901,0.9925783266050467,0.003336140100176592,298.2423400878906,146.14467936202024,1005356.7500000003,610742.7500000002,160949.75000000003,TazeYaprak
59.477746194370795,2.6507669976690575,0.6340499139164573,0.10076567226340628,0.9910441144916909,0.010209008181969008,327.013671875,114.76820244124879,950079.0000000002,186337.00000000006,93002.00000000003,TazeYaprak
67.45550749711518,2.540943777633511,0.6770515086367611,0.13161914326101523,0.9887023828023581,0.017386516754156735,376.3036193847656,108.65903890969213,1116006.2500000005,218379.25000000006,111929.25000000003,TazeYaprak
72.61473204416401,3.067012927720003,0.6438402042438676,0.23535610241160962,0.991100551433729,0.05540299686278438,391.3197021484375,127.17641862816812,944808.0000000003,440497.0000000001,139548.00000000006,TazeYaprak
89.3067404964405,4.185092091983685,0.5277211567171853,0.07042165716275717,0.9891760665140759,0.005007979821151775,340.2677307128906,127.82343878666688,1142048.7500000005,698775.7500000002,128432.75000000003,TazeYaprak
129.85457842236343,7.367015465806359,0.17688917643633048,0.017203770225675062,0.9641582832533053,0.0002973232353196121,300.9710998535156,84.10219209362164,1292963.7500000005,1370814.7500000005,224673.75000000006,TazeYaprak
98.64263171016523,5.205558348952428,0.24506432942622167,0.03008161094115059,0.8932027336921531,0.0009050710032656699,156.41915893554688,41.383097651587825,1098093.2500000005,665781.2500000002,485246.2500000002,yaprak
87.25178768382864,4.7502607470686,0.24555903063734894,0.03256002122709806,0.921490242784867,0.0010603547328176825,154.21621704101562,45.79507730415699,1101526.2500000002,557072.2500000001,401006.2500000001,yaprak
84.59133272059387,4.96855689518467,0.23594413280266419,0.028172737840361613,0.9489804752906477,0.0007938510675209588,162.51376342773438,56.57070746432598,905344.7500000003,629293.7500000002,429124.7500000001,yaprak
73.96931186322908,4.843620272251112,0.2387653862276352,0.03250995157361451,0.8980400453413817,0.0010571251860620496,149.06317138671875,36.69754592017565,797379.0000000002,537815.0000000002,442170.0000000001,yaprak
61.3186313256939,4.093082588427621,0.2610228873055609,0.03333874936090405,0.9112229086162493,0.00111168292273398,159.93310546875,36.093865989729885,770119.5000000001,360274.5000000001,276995.50000000006,yaprak
64.78977487625278,4.686869713571809,0.22672801310827212,0.03074564952843548,0.9433291972299435,0.0009456772774366453,131.31597900390625,46.826142947851324,793074.5000000002,434468.5000000001,297890.5000000001,yaprak
97.47688893695339,4.919151257929813,0.24060388183570197,0.030195298217271002,0.9363490743920555,0.0009120419027479126,154.47293090820312,54.07737712168509,972780.2500000002,821614.2500000002,437627.2500000001,yaprak
78.97651933751851,4.728042519704067,0.23432568566671308,0.03291816222098344,0.9051898550580516,0.0010839077153034745,146.57174682617188,39.44761131924596,891839.2500000002,527782.2500000001,421449.2500000001,yaprak
101.93281326593782,5.308579257377101,0.23137035462890837,0.030521315121781422,0.8884315297860435,0.0009317244287780303,148.00436401367188,41.02366620429149,1104053.7500000005,635594.7500000002,670839.7500000002,yaprak
107.57954581772032,5.287049722462644,0.23821416907850146,0.033046221046597365,0.8719335589262887,0.0010922350546338515,157.76055908203125,39.13411612646858,1150892.0000000002,725307.0000000002,623015.0000000001,yaprak
73.95102774474107,4.983015561923381,0.22905929826369867,0.030262822236604293,0.9207838962677983,0.0009161102927057925,155.14642333984375,41.98810134945509,703131.0000000001,604993.0000000002,476966.0000000001,yaprak
83.70303148128595,5.115253553320981,0.22354939990476405,0.02788406174663309,0.9328458078662764,0.0007778402839703324,139.67111206054688,48.71936953215813,944602.2500000002,570331.2500000002,436988.2500000001,yaprak
87.07301482603307,4.859710538014328,0.24016122009960855,0.03372001200109542,0.881694461878177,0.0011373603317376092,152.4833984375,36.77271257880968,994338.0000000003,607380.0000000001,416658.0000000001,yaprak
79.01395779268022,4.462260038206587,0.24875485358769805,0.033304389500299396,0.9200797193584338,0.0011094352678304616,158.96142578125,43.22377559489784,1083218.0000000005,440355.0000000002,311287.00000000006,yaprak
70.21549824587052,4.50339202470219,0.246884026092048,0.03391296680278052,0.9092272997807631,0.0011503830109781633,153.72695922851562,38.097676317625165,868654.7500000002,426481.7500000001,326941.7500000001,yaprak
91.88403118692872,5.196846960904599,0.23049514031071947,0.028591514248567956,0.9248468003765788,0.0008175792518831408,164.327392578125,48.135429930944824,1118905.5000000002,624533.5000000002,451727.5000000001,yaprak
81.37477912642207,4.7357179480249325,0.24407977956429056,0.030815432621547532,0.9305872147675329,0.0009498236582423178,148.86361694335938,47.188220129839756,953185.2500000002,573253.2500000002,388047.2500000001,yaprak
82.90455700632384,5.279183381992526,0.19531620418105392,0.0318015726006176,0.9003931404090116,0.0010115111054306697,120.36892700195312,39.302829266487024,782610.7500000002,635838.7500000002,524107.7500000001,yaprak
72.20506289648613,4.586844633073961,0.24355353257825063,0.03138564674371771,0.9205187678267355,0.0009854060612392095,136.83352661132812,41.43945322171814,835092.2500000001,459110.2500000001,329803.2500000001,yaprak
77.74772881824691,4.836608485918984,0.24019590506211178,0.031089044600342095,0.9109430403802904,0.0009667446783041258,146.43338012695312,40.445805237129605,1001166.2500000002,486737.2500000001,356436.2500000001,yaprak
89.76878284494458,4.87546906538365,0.25052010139650266,0.029448920914915497,0.9378893807873169,0.0008673856922034674,150.16213989257812,52.52631526667469,908062.7500000002,696571.7500000002,511617.7500000001,yaprak
75.8070821919492,4.64923923490975,0.24954307292169248,0.034027693733066945,0.8849923595453264,0.0011580240818415471,143.25607299804688,34.81156453500122,769894.2500000002,575582.2500000002,434284.2500000001,yaprak
84.20426180736123,4.93922164852471,0.23975433124820544,0.030766804007476493,0.9009489528283775,0.0009468584448113701,130.89535522460938,39.720749817909535,1069852.2500000002,526572.2500000002,384627.2500000001,yaprak
71.68296118079914,4.553097096068935,0.2479964134801747,0.03507506076295884,0.879060537739968,0.0012305149716819127,139.81124877929688,32.93108689646817,966414.7500000002,422101.7500000001,300281.75000000006,yaprak
91.86571518466977,4.852238156598541,0.2523927693643891,0.033541345850729445,0.9325016019585457,0.0011251634329553777,158.06967163085938,50.921640504499834,906477.2500000002,795278.2500000002,372071.2500000002,yaprak
92.69413446751794,5.187295030757532,0.23619893348408805,0.03172759575726447,0.905414131656876,0.0010067818292027672,152.31533813476562,42.72378257630479,1037736.2500000003,684506.2500000002,497100.25,yaprak
117.27199984682122,5.3261080624040495,0.2374484012332357,0.03286343301184061,0.8545645632989077,0.0010802004842266708,144.56390380859375,37.998456496131574,1556549.0000000005,638299.0000000001,572534.0000000001,yaprak
102.07012824094757,5.199475427119512,0.22666989460076692,0.03083824472461776,0.8762108673701845,0.0009512231840194924,142.58795166015625,38.86589371406473,1003004.0000000002,723015.0000000002,640110.0000000002,yaprak
123.05538319096772,5.607700779147583,0.22377964784419835,0.02641461508854316,0.925526707766047,0.000697890914295551,157.96951293945312,55.95841717945183,1433625.7500000005,793184.7500000002,654649.7500000002,yaprak
91.81685651252363,5.053896863586191,0.2352459832238452,0.03169158554421565,0.8866049567671874,0.0010045705541421519,153.36660766601562,38.64993318583377,1033774.2500000003,578475.2500000002,519133.2500000001,yaprak
100.71437436923857,5.534970323914007,0.2206926888270028,0.02953522977879069,0.8990907871979659,0.0008724823715074896,147.35076904296875,43.06956931433429,1134138.0000000002,699963.0000000002,521185.0000000001,yaprak
92.87884372897928,4.982096954897325,0.23441153774714907,0.02918355236660159,0.936043588850149,0.0008518988797139563,158.97369384765625,52.68113844192369,1123861.0000000002,577831.0000000002,430507.0000000001,yaprak
98.35729025495667,5.087125084102409,0.2359008914167282,0.02848219036638703,0.9354948783576059,0.0008113517563968589,164.6534423828125,53.92667086363813,1113624.0000000002,673313.0000000002,535549.0000000001,yaprak
74.52377297794425,4.651504529507995,0.2385909034493557,0.03177193901093807,0.9095993465561336,0.0010097586764576704,145.37896728515625,39.28468801156403,938015.5000000002,518150.5000000002,337505.5000000001,yaprak
89.60421703792345,4.951191128412264,0.23750490484326237,0.032554850027954677,0.8773856852812122,0.0010601602092104156,136.29251098632812,36.58918288101042,966444.7500000002,624718.7500000002,437741.7500000001,yaprak
122.588240745755,5.714150792363692,0.22941159751878293,0.03039017765291381,0.8475396142018281,0.0009237163627235073,143.94052124023438,37.891911453635394,1426777.2500000005,761239.2500000002,685957.2500000002,yaprak
41.79702102256532,3.647994626465879,0.27162213725985407,0.04048226238881631,0.9621032849191432,0.0016391060717463454,106.689208984375,46.298697541637495,444355.5000000001,311226.5000000001,199060.5000000001,yaprak
42.867353406744265,3.771981013913015,0.26682710575898844,0.03979828605346537,0.9343623432930712,0.0015841766117461419,102.46102905273438,35.32401107585249,453120.2500000001,280970.25000000006,214764.2500000001,yaprak
45.66399918300873,3.9495862468763225,0.2599503639284062,0.042192659503311476,0.9288291201011513,0.0017805624137767026,97.549560546875,34.89021894079441,378995.0000000001,420696.0000000001,266567.00000000006,yaprak
46.316384503558524,3.8600728986448734,0.2684727525292513,0.039280424870010294,0.9498528768484862,0.001543386131042243,93.04681396484375,42.13297409058992,420207.0000000001,448721.0000000001,249818.0000000001,yaprak
51.86544069588888,3.901215998654485,0.2688543647173926,0.039767217483520946,0.9437474937440475,0.0015820342152095838,98.62094116210938,42.03473179488976,542146.7500000002,395491.7500000001,262271.7500000001,yaprak
62.26267389646123,3.966108723207553,0.27101628303744363,0.03229723478110963,0.9564872725674418,0.0010432925107300914,131.88836669921875,52.649611171981554,626136.0000000002,485592.0000000001,336046.0000000001,yaprak
60.616708102055284,4.30429460724253,0.2530440260489821,0.03264744339648109,0.9779950544121316,0.001066086980021187,136.92544555664062,73.60344581073687,619088.2500000002,469664.2500000002,277133.25000000006,yaprak
64.60416159049726,4.008674428104705,0.26898653564648656,0.031981779241521416,0.9648840334534003,0.0010229760069540997,138.58309936523438,59.882960855885955,689210.7500000001,468950.7500000001,305554.7500000001,yaprak
41.82219642084957,3.6209755262400005,0.27424465689211364,0.038170242131884864,0.9618524041620945,0.0014572134797697645,114.42376708984375,46.15800889313746,492594.5000000001,270296.5000000001,197550.5000000001,yaprak
38.63062115532641,3.6338282151096566,0.27064857833177625,0.04111213999891129,0.9492320034152986,0.001690460666689602,111.38821411132812,38.27340163021457,417115.2500000001,278400.25000000006,226693.25000000006,yaprak
73.56506972979494,4.359145145497088,0.2564879202143,0.032950063045685374,0.9318534872862292,0.0010858892897002317,122.74832153320312,45.341604307381154,933082.7500000002,460636.7500000002,332578.7500000001,yaprak
43.073211445119966,3.8169254012881026,0.2714924152146512,0.04838031818083284,0.9332044574247653,0.002341475508051049,81.77615356445312,35.001955941787486,378155.2500000001,405352.25000000006,210477.25000000006,yaprak
43.68374089893546,3.6978014765956644,0.2795332197055426,0.045428257524571504,0.9512613780091961,0.002064483916276464,90.47586059570312,41.5376403000741,508548.2500000001,310251.25000000006,196038.25000000006,yaprak
59.86513519440126,4.232906003700698,0.26565333926815865,0.0427993194161162,0.9537608270114035,0.0018322172798997318,94.11578369140625,49.94912930870118,583390.5000000001,576385.5000000001,241874.50000000006,yaprak
41.657400639179556,3.766544267829805,0.27272234274464424,0.04319957893770916,0.9468928330862207,0.0018667582213498812,93.78781127929688,38.804140586473686,418277.2500000001,353329.2500000001,199345.2500000001,yaprak
45.81801499123181,3.918107173322903,0.27025749546536726,0.04276488033906341,0.9575517600986961,0.0018293746760453494,96.28070068359375,45.69154738343019,416571.5000000001,441896.5000000001,220473.50000000006,yaprak
39.351853779197384,3.649391084558926,0.27844627462064614,0.04069301781066807,0.9610873718084012,0.001656393720910669,95.2139892578125,44.2906578072389,385756.5000000001,342000.5000000001,191540.5000000001,yaprak
37.65122624111113,3.561152771770584,0.2808747547441322,0.04623223323994184,0.9384575092279319,0.0021380766275204644,78.9429931640625,34.14717047489235,431199.5000000001,281209.5000000001,178780.50000000006,yaprak
39.09092103998656,3.6559359381008405,0.2760778378988977,0.042567023920654756,0.9537465777365846,0.0018124980019795026,94.92974853515625,40.40084013155176,399145.5000000001,307885.5000000001,183690.5000000001,yaprak
37.082196781287486,3.6047652345252907,0.2775110772269549,0.041564807507475016,0.9569783002783083,0.0017282293742518732,92.000244140625,40.82856226371959,444433.0000000001,252547.0000000001,173801.00000000006,yaprak
48.77794907607924,4.1012388564495605,0.2605775307889285,0.03970622521442349,0.9591809921791749,0.001576991577242474,96.34515380859375,48.114673427387984,479951.0000000002,409072.0000000001,244010.00000000012,yaprak
41.85672699502762,3.583406277032961,0.2715729257283289,0.05239008418819103,0.9485327039647997,0.0027448916271456316,75.46865844726562,39.498454510249935,506083.2500000001,266099.2500000001,223167.25000000006,yaprak
46.208955780230696,4.208295847750959,0.23447525884406764,0.04800783508091951,0.8999780402499598,0.0023048428851742495,73.74261474609375,29.187622965463298,485910.0000000001,356016.0000000001,299459.0000000001,yaprak
38.88616496660108,3.8113648897059864,0.2560285980720219,0.05017173039394136,0.916789331377027,0.0025174419870583067,69.80953979492188,29.574306635520728,443143.7500000001,284310.7500000001,211262.7500000001,yaprak
67.70627707793074,4.5726786422290555,0.22893667821393196,0.04520720315070671,0.9288448641078347,0.0020438263140399797,79.7847900390625,42.36775414353296,801064.5000000002,499823.5000000001,360457.5000000001,yaprak
49.57530984177007,4.357440572736536,0.23155311553428187,0.047806315589123016,0.9077579365056949,0.002285546018917048,72.3203125,31.616302379814677,535015.0000000002,352624.0000000001,293330.0000000001,yaprak
44.15079985762834,4.2163274191417575,0.23139149242818108,0.04671742378222304,0.8809055378482809,0.002182609558292999,72.17672729492188,25.99571255603965,459572.2500000002,315105.2500000001,276712.2500000001,yaprak
54.84365916955242,4.442973736063134,0.22706629488293265,0.0470498405314048,0.9032942443062669,0.0022137706046340285,73.90472412109375,32.40967981709697,577589.0000000001,418749.0000000001,323287.0000000001,yaprak
41.2831447339982,3.839268190119288,0.25319692819494444,0.0507167466058724,0.9078334618128405,0.0025723707273418456,71.67547607421875,28.840634466471556,434107.0000000001,355396.0000000001,222378.0000000001,yaprak
53.0043958002955,4.260510756079492,0.2362198295530123,0.04696461435435466,0.9299824998089902,0.0022057977278323515,76.53335571289062,37.842648041720125,563635.2500000002,381593.2500000001,315092.2500000001,yaprak
37.15277920451412,3.5418289690264255,0.2709485891313369,0.05334572900153682,0.9441239476311808,0.002846088539777179,73.97662353515625,35.65454807610938,448039.5000000001,271205.5000000001,171542.50000000006,yaprak
42.87456799968952,3.5671519818099684,0.27743576782860896,0.05668151024020253,0.9528588532910951,0.0032131689744056245,77.0830078125,41.79863030001068,494972.0000000001,353140.0000000001,217537.00000000003,yaprak
44.38686995386552,3.9848492166475404,0.24808180055732504,0.05087222197569546,0.918783577400081,0.002588144066632008,69.72683715820312,32.066882057795105,428459.7500000001,317941.7500000001,255260.7500000001,yaprak
54.6616889687878,4.426006538951456,0.23055753927392422,0.04853087807541026,0.9397899785743845,0.002355389209817574,78.52816772460938,41.606135862612355,370954.2500000001,599410.2500000002,320970.2500000001,yaprak
46.56000881572164,4.22961951232709,0.23503660060450923,0.04805252262082494,0.9219679812104445,0.0023091780638052283,73.78399658203125,33.46345331488968,499295.0,366022.0000000001,280733.0000000001,yaprak
58.622416633629264,4.495663822207895,0.23030601707774406,0.04754817142738963,0.9079592880753956,0.002260933512942639,75.78347778320312,34.459684074344864,574477.7500000002,434503.7500000001,345611.7500000001,yaprak
41.39440879109204,3.6569187031431354,0.27441950648720365,0.05176950627980754,0.9311198006163535,0.002680591812614235,74.45059204101562,33.7960751883383,403981.7500000001,326283.7500000001,192224.75000000006,yaprak
36.39174750997333,3.8168025368849277,0.2539922903721956,0.047517580003350726,0.9038870774583708,0.0022581267109399858,73.85067749023438,26.54172548421973,359525.2500000001,274985.2500000001,211348.25000000006,yaprak
45.72793168493068,3.8767796941081296,0.25458220334634013,0.04924713185462043,0.9493729171730592,0.0024255684404780645,79.71832275390625,41.68100180940093,521462.0000000001,284105.0000000001,233221.0000000001,yaprak
53.708885614909875,4.3725860546425395,0.23392947602958078,0.046926802426742235,0.9280332565916742,0.002202245666315509,77.59552001953125,37.52861295375183,598824.5000000002,368426.5000000001,343561.5000000001,yaprak
48.749636963550685,3.8548792982267965,0.26661870765341994,0.04947379128332706,0.9500553255160968,0.002448024983876986,79.46612548828125,43.317164983467656,501193.0000000001,397586.0000000001,239524.0000000001,yaprak
28.240628063726643,3.213850412101192,0.2906434011648662,0.05763856905533894,0.9459901467296112,0.0033228360191017445,69.82736206054688,31.664051843914233,314895.2500000001,202692.25000000006,134593.25000000006,yaprak
35.382488646195355,3.4417267697521208,0.29099014122433997,0.04700780095473946,0.9717528182784609,0.002210300966273896,83.33645629882812,49.45009064215533,451738.7500000001,236840.75000000006,163792.75000000006,yaprak
50.309980205932185,4.139884089052392,0.2417782832643444,0.05134967659094769,0.9230993063635462,0.002636951519318532,76.6624755859375,35.061454218255385,567867.0000000002,379967.0000000001,283159.0000000001,yaprak
61.75393009900388,4.471910983756354,0.23178194498005805,0.04963086829149071,0.9045321536097874,0.0024633178925801266,72.09848022460938,34.63727699709218,714103.7500000001,397050.7500000001,353865.7500000001,yaprak
49.789677663040365,4.038799845612383,0.25150469438080253,0.05225334160755585,0.9204537897708509,0.0027306079388183364,70.87008666992188,34.282183578791894,474788.2500000002,426619.2500000001,284337.2500000001,yaprak
57.451310043015106,4.242151005622964,0.2440574079298195,0.048082893396030224,0.9129583724867028,0.002312138914564734,74.52056884765625,35.12169097261722,680667.5000000002,381079.5000000001,292351.5000000001,yaprak
57.74411294634591,4.2923539173636325,0.24266824271038567,0.04895901023870505,0.932783352822719,0.002397118623172036,76.12200927734375,40.35932025760796,610619.5000000001,436996.5000000002,316326.5000000001,yaprak
50.23669209258635,4.549574487576962,0.21870593793100118,0.041401755544137775,0.9356571033167593,0.0017142825689753678,89.92681884765625,38.5287271355408,524352.5000000002,392152.5000000001,288916.5000000001,yaprak
26.52958683258985,3.151098210423944,0.28911334193522303,0.051742395510899875,0.9551199471670071,0.002678405518336145,84.08380126953125,33.80695510801513,234760.00000000006,261909.0000000001,101707.00000000003,yaprak
41.74610439794955,3.8999764363467047,0.25435931839729053,0.055808295807039984,0.882140614070102,0.003114694116526616,64.71859741210938,25.416007557187363,310323.2500000001,423272.2500000001,257666.2500000001,yaprak
47.43876674536454,3.938451241710027,0.2561050508156933,0.05420176500616951,0.9154697564598192,0.002938058189847917,68.90139770507812,32.3998103176193,479901.7500000002,383669.7500000002,263088.7500000001,yaprak
64.24617999988288,4.558381556973353,0.23175915695581256,0.05123658379638274,0.9029246477698364,0.002625303422351683,70.46353149414062,34.984300817867904,697386.2500000002,468427.2500000001,388012.2500000001,yaprak
39.80125669814666,3.8340922061227465,0.25390691169082635,0.05386460484328846,0.9029794377519504,0.002901602634157338,66.64212036132812,27.583358460954557,419562.25000000006,286278.2500000001,229455.25000000006,yaprak
48.72504643646866,4.1080291834872185,0.24238737996320636,0.04785771035680157,0.9557419328762832,0.0022905008104710037,80.058349609375,46.11503958672057,507054.0000000001,334193.0000000001,264550.00000000006,yaprak
58.33476137483446,4.248014300389397,0.2429960202723172,0.04501478148549727,0.914496752576619,0.002026471052102324,76.84768676757812,35.74708953092768,654613.7500000001,398428.7500000001,308532.7500000001,yaprak
55.893815149224345,3.9586707336122267,0.26992552586235263,0.036115208863237144,0.9463092320665136,0.0013045141565690536,122.20547485351562,44.72087267227603,673968.2500000002,358049.2500000001,280299.25000000006,yaprak
43.43146446078618,3.6865093053153775,0.2727516860149882,0.038341662987364855,0.9571979568745907,0.0014703293942711002,115.31924438476562,44.31254713546884,415292.2500000001,394665.2500000001,238396.2500000001,yaprak
40.03741335964717,3.57598178885534,0.2754431334859311,0.043767584625259495,0.9409900990414839,0.0019159524375393017,108.86895751953125,36.03422839404572,406573.00000000006,317219.00000000006,209998.0000000001,yaprak
45.59518418396974,3.7386317462034904,0.2682979421341938,0.038576429675144075,0.9530275245157478,0.001488323374362029,117.13446044921875,43.2909047526569,526383.5000000001,281161.50000000006,245372.50000000006,yaprak
45.38030635753303,3.7940240983036744,0.27093153806891773,0.03550675889447573,0.9602651030979574,0.0012610468999371366,113.77740478515625,47.06385698422578,619530.5000000002,248874.50000000006,188318.50000000006,yaprak
43.100278889130735,3.686916991061215,0.26938229164201133,0.039368735911871094,0.9388517940580425,0.0015501475163541057,109.233154296875,36.67895063039954,467310.0000000001,301384.0000000001,262364.00000000006,yaprak
40.53043734681584,3.6244560235246954,0.26899698118340687,0.04122974750239364,0.9626979169379508,0.001700169512529564,114.70928955078125,45.97054133399111,428716.0000000001,297213.00000000006,190786.0000000001,yaprak
51.426638627573276,4.146275696246776,0.26016105390313,0.03360085997510533,0.9638571377507635,0.0011292023451606515,121.41812133789062,52.62447310000963,449880.7500000002,498137.7500000002,251615.7500000001,yaprak
39.62492716142994,3.701970816512965,0.2676288898412952,0.038889375044190044,0.9612695217932637,0.0015126139057861586,113.759033203125,44.58919041974143,401592.0000000001,314319.0000000001,188082.00000000006,yaprak
38.41973323061019,3.630908079224441,0.2747668470027892,0.03455803232522842,0.9673314164403889,0.0011945316910504833,118.68942260742188,47.908541890184594,427776.2500000001,288453.2500000001,187074.25000000006,yaprak
60.29049470156059,4.105876045271198,0.26475055759544824,0.03791312846727385,0.9492223732642839,0.0014376560798842629,122.13589477539062,47.78710497991062,646721.2500000001,522520.2500000002,273175.25000000006,yaprak
45.27354258278248,3.7667814812813276,0.2627829460995913,0.038983529814356044,0.9657075166873271,0.0015200962136791031,116.71514892578125,50.70026721773271,549739.5000000001,299872.50000000006,197704.50000000006,yaprak
54.07870176134438,3.9801824418494354,0.26519417310930604,0.033941113254869586,0.9531861317708258,0.0011522448717501501,121.4754638671875,47.24733125864492,659407.0000000002,319704.0000000001,265941.0000000001,yaprak
38.871566840279414,3.5772881073386102,0.2705927356763031,0.04296331071051694,0.9444466426139779,0.0018462164634862443,111.61575317382812,36.648817401124845,464254.2500000001,244888.2500000001,199264.25000000006,yaprak
37.51751944865107,3.5828801873078353,0.2681657196974411,0.042474853355233676,0.9416197581744261,0.0018044904901487915,109.94915771484375,35.118447252481445,445766.0000000001,222849.00000000006,179020.00000000006,yaprak
32.34117864823727,3.499860765691142,0.27324618377617566,0.03818473598713264,0.9687932629850613,0.0014583293913011473,121.03692626953125,45.00911919292451,323149.5000000001,236325.50000000006,182748.50000000006,yaprak
159.98168542448002,8.546668754205106,0.1467318946522684,0.013649874017511478,0.9620246064196722,0.00018782128147359965,267.6648254394531,90.66715669499935,1368471.2500000005,2025185.250000001,156350.25000000006,yaprak
124.28430505995495,7.362438710471886,0.16649431166738696,0.015055460707669832,0.9683236134551051,0.00022780603096115548,272.7159729003906,87.67270537177077,1242343.2500000005,1375908.2500000005,152539.25000000006,yaprak
137.97565186767295,7.568498849601028,0.1813128881502596,0.014794215707204668,0.970252117230295,0.00022000220892542932,278.66680908203125,95.21393088048896,1261756.0000000005,1646064.0000000005,195265.00000000006,yaprak
169.98334569336902,8.549112375648825,0.15031916958662103,0.014797610798273672,0.9536979404056822,0.00022010190770881252,268.4959411621094,84.27235545423041,1665639.7500000005,1832944.7500000007,280263.7500000001,yaprak
183.97299057154396,8.650802981425626,0.15974775287505671,0.01611528288966341,0.9494743452144271,0.00026108863379130674,247.96481323242188,83.8560245484957,1521861.7500000005,2239038.750000001,361790.7500000001,yaprak
135.71250479082988,7.249112796160226,0.19030699028358838,0.016689353506565672,0.9660669878209446,0.0002801603566712866,265.9894714355469,88.36015069765565,1129091.7500000005,1694235.7500000005,210007.75000000006,yaprak
146.65276966792203,7.049733696174641,0.21935621579851333,0.018027082589062115,0.9633339411572945,0.00032672537602186034,251.22225952148438,88.28787599302854,1257267.7500000005,1767434.7500000007,242841.75000000006,yaprak
135.03738444949212,7.539197664359792,0.18500994424220762,0.014997033568340945,0.9715053235938866,0.00022678822184702866,262.8555603027344,96.40467227153597,1140794.7500000005,1710508.7500000005,126528.75000000004,yaprak
107.55193597414677,6.5864903522683775,0.20021793434856264,0.017201925926721533,0.9662769479230159,0.00029765659238533353,263.51824951171875,78.99252787863226,902283.5000000003,1360694.5000000005,140931.50000000003,yaprak
161.0633070213455,7.703026330017446,0.18693700881608202,0.017747015330658592,0.9593968540319249,0.0003167774622126119,244.61517333984375,87.79230009405674,1579869.0000000005,1742334.0000000005,291260.0000000001,yaprak
211.65539012940656,9.116389624783872,0.15134920787462855,0.015533158402978201,0.9336325306306373,0.00024260525722867365,234.98831176757812,78.05587586975373,1931623.7500000005,2412649.750000001,291501.7500000001,yaprak
183.85981530542,8.8311667087179,0.15306443191536678,0.015140967514612868,0.9418122250518509,0.0002303916062797581,254.57012939453125,77.90702792483432,1985836.5000000007,1829805.5000000007,270610.5000000001,yaprak
206.29379380827828,9.159776783568862,0.14994657119730745,0.014674526509119936,0.9347810930566033,0.00021638128740385291,270.3175964355469,77.74485134215699,1917454.7500000007,2338272.750000001,412459.7500000002,yaprak
416.28024766617636,14.019999204031848,0.09023176247555138,0.010889341394358078,0.8962504036883013,0.00011936410700003991,262.3006896972656,86.29539004011562,3638923.2500000014,5095042.250000002,568465.2500000002,yaprak
325.36894723484716,11.86024349108487,0.11273392527021801,0.011924231956312403,0.924311192987786,0.00014294903529290655,257.626708984375,90.29488533621468,2967328.000000001,3835427.0000000014,456343.0000000002,yaprak
227.38425860847576,10.11874210039405,0.12988790888137408,0.013031729167993151,0.9437114024193175,0.00017079939856919107,260.1556396484375,88.11591892722721,2086550.0000000007,2736554.000000001,252861.0000000001,yaprak
332.1573204566891,11.87501980908762,0.11357419414718481,0.012448322669608389,0.9169446317306531,0.00015577739620211892,253.03341674804688,86.93775553265856,3285397.250000001,3580892.250000001,520450.2500000002,yaprak
300.8013832420337,11.339204032102828,0.12000478364084363,0.012980306436222878,0.9187596442339115,0.00016957676949579041,253.4793701171875,83.66429614044162,2639952.500000001,3828871.500000001,356079.5000000001,yaprak
288.86922986352874,10.549378814638578,0.14079592627618404,0.013986882770083019,0.9200480444270646,0.00019679208134322707,246.275146484375,82.69584636092455,2442524.000000001,3443954.000000001,468176.0000000001,yaprak
250.35806938738142,10.02782645196545,0.1372396967482075,0.014299510430114617,0.917753661425406,0.0002052302711193215,275.8070068359375,75.80016003417794,2340225.500000001,2515641.500000001,796181.5000000002,yaprak
331.63567992179594,12.05789358359739,0.11384396619427176,0.011914134131439082,0.918336052569521,0.0001427876654481033,260.457763671875,87.57492372343155,2714295.500000001,4251851.500000002,475228.5000000002,yaprak
232.06348600899926,9.049534584054447,0.16750156970694907,0.01480343511914517,0.9481183939009133,0.0002199023949081588,257.193115234375,92.80127131262091,1762541.5000000005,2633270.500000001,885882.5000000002,yaprak
203.78353609490313,9.076072108684386,0.1585826256136834,0.014118677568254601,0.9524504717290494,0.00020046364969862943,236.20504760742188,91.09243469400532,2120249.750000001,2039280.7500000007,332839.7500000001,yaprak
77.3162796911063,5.182070162317477,0.2435421133643884,0.021678242189423887,0.9737278218033868,0.0004732946222851347,280.1073303222656,75.9992280256831,595500.2500000002,1016501.2500000002,117685.25000000006,yaprak
239.37638020833793,9.91608479911563,0.13226010047401698,0.015099364150086385,0.919221641663687,0.0002293786712793587,286.7381896972656,74.76338355227591,2110476.750000001,2978704.750000001,285060.7500000001,yaprak
206.37266963128215,9.190759788903446,0.16280670208217296,0.015330227736643545,0.9418822803224224,0.00023628438953683396,239.62612915039062,82.60741967379812,1903947.2500000007,2413169.250000001,294367.2500000001,yaprak
284.2820515546944,11.209387345011248,0.11677748600097843,0.01159602171696388,0.9446196481881629,0.00013531330909093345,262.8428649902344,99.32882756515649,2823180.250000001,3202423.2500000014,338977.25000000006,yaprak
163.76176882089,8.33263888888889,0.1516926848033523,0.015777983712058796,0.9467620380075169,0.0002503601538654133,260.6282653808594,76.96717003820731,1713183.2500000005,1712290.2500000005,207609.25000000006,yaprak
178.3877220299945,8.687137248894745,0.1512132559884713,0.01588512529188636,0.9513966721685502,0.0002540218705803929,271.3142395019531,84.17617701784232,1380922.7500000005,2323023.750000001,232149.75000000006,yaprak
228.57847325849093,9.97627951088518,0.12734028032822903,0.01307383158165904,0.9435205015661419,0.00017179779054329292,278.1955871582031,88.18624831308775,2147146.750000001,2590377.750000001,315610.7500000001,yaprak
171.13958940071944,8.64966136822378,0.14840332544825618,0.014873213762964892,0.9540256118075976,0.00022258304572807185,255.59762573242188,84.92278582970931,1865909.2500000007,1755814.2500000005,162028.25000000006,yaprak
161.18889782476322,7.810682835327819,0.17000289510663122,0.01762375040487618,0.9432325325550082,0.00031247094286903477,252.57052612304688,73.92419747604367,1373139.7500000005,1982670.7500000005,193511.75000000006,yaprak
127.78344131464189,7.341151900711281,0.16962990545068216,0.016940485147689373,0.9526265115304955,0.00028895778745157227,266.5181884765625,72.25550692673791,1007743.5000000003,1714641.5000000007,130559.50000000004,yaprak
228.85621434665939,10.114658694973055,0.12079076804051664,0.014228549202045604,0.9214162204718712,0.00020363094771244886,241.86737060546875,74.26196348715233,2489109.000000001,2275702.000000001,330537.0000000001,yaprak
116.80207852749164,7.060434057814329,0.17586988679470084,0.018120319257781407,0.9570915685504716,0.0003305745982309886,255.86508178710938,72.68082057377985,1064981.7500000005,1388375.7500000005,145147.75000000006,yaprak
229.73388265631792,9.748861180195082,0.14446242411661817,0.014127636999081903,0.9420104774955756,0.0002009000440778753,251.40826416015625,87.35204553805352,2090428.5000000007,2660369.500000001,287845.5000000001,yaprak
